INPUT_PARAMETERS
#Parameters (1.General)
suffix			autotest
calculation     scf
ntype			1
nbands			6
symmetry		1
pseudo_dir	../../PP_ORB
pseudo_type     blps
pseudo_rcut     16

#Parameters (2.Iteration)
ecutwfc			20
scf_thr				1e-6
scf_nmax			100


#Parameters (3.Basis)
basis_type		pw

#Parameters (4.Smearing)
smearing_method		gauss
smearing_sigma			0.002

#Parameters (5.Mixing)
mixing_type		pulay
mixing_beta		0.7
