INPUT_PARAMETERS
#Parameters (1.General)
suffix                  autotest
calculation     	scf
symmetry                1

#Parameters (2.Iteration)
ecutwfc                 80
scf_thr                 1e-8
scf_nmax                100
cal_force               1
cal_stress              1
#Parameters (3.Basis)
basis_type              lcao
#kspacing                0.06
#Parameters (4.Smearing)
smearing_method         gauss
smearing_sigma          0.01

#Parameters (5.Mixing)
mixing_type             broyden
mixing_beta             0.7

pseudo_mesh     	1
pseudo_rcut     	10.0

pseudo_dir		../../PP_ORB
orbital_dir		../../PP_ORB

#restart_save		1
restart_load		1
read_file_dir   ./

bx 2
by 2
bz 2
