INPUT_PARAMETERS
suffix      PbTiO3
ntype       3
#nbands      25
ecutwfc     50
niter       40
symmetry    0
dr2         1e-10
calculation scf
basis_type  pw
smearing    gaussian
sigma       0.002
mixing_beta 0.3
out_charge  1
