INPUT_PARAMETERS
#Parameters	(General)
pseudo_dir              ../../../tests/PP_ORB
ntype			1	
nbands			8
#Parameters (Accuracy)
ecutwfc			50
scf_nmax			20

basis_type		pw

latname	fcc
