ATOMIC_SPECIES
N 1 N.LDA.UPF
LATTICE_CONSTANT
20  // add lattice constant(a.u.)
LATTICE_VECTORS
1 0 0
0 1 0
0 0 1
ATOMIC_POSITIONS
Cartesian_angstrom  //Cartesian or Direct coordinate.
N //Element Label
0.0     //starting magnetism
2       //number of atoms
0.0     0.0     0.0     0   0   0  // crystal coor.
0.0     0.0     3.0    0   0   0
