ATOMIC_SPECIES
Be 9 Be_ONCV_PBE-1.0.upf upf201

NUMERICAL_ORBITAL
Be_gga_8au_60Ry_4s1p.orb

LATTICE_CONSTANT
4.30  // add lattice constant

LATTICE_VECTORS
1.0  0.0   0.0
-0.5 0.866 0.0
0.0  0.0   1.568

ATOMIC_POSITIONS
Direct 

Be	// Element type	
0.0	// magnetism
2	
0.000 0.000 0.00 1 1 1
0.667 0.333 0.50 1 1 1
