INPUT_PARAMETERS
#Parameters (1.General)
suffix			autotest
calculation     scf
ntype			1
nbands			8
symmetry		1
pseudo_dir      ../tools/PP_ORB/
orbital_dir      ../tools/PP_ORB/
pseudo_type     upf201
nelec           10

#Parameters (2.Iteration)
ecutwfc			20
scf_thr_rho				1e-9
scf_nmax			100


#Parameters (3.Basis)
basis_type		lcao

#Parameters (4.Smearing)
smearing_method		gauss
smearing_sigma			0.002

#Parameters (5.Mixing)
mixing_type		plain
mixing_beta		0.7

cal_force           1
cal_stress          1

gamma_only	1
