INPUT_PARAMETERS
#Parameters	(General)
pseudo_dir              ../../../tests/PP_ORB
ntype                   2
nbands                  35
calculation             nscf
symmetry                0

out_level               ie
out_band                1
init_chg                file

smearing_method         gaussian
smearing_sigma          0.02
#Parameters (3.PW)
ecutwfc                 50
scf_thr                 1e-8
scf_nmax                100
pw_diag_thr             0.00001
lspinorb                1
nspin		            4

#Parameters (LCAO)
basis_type              pw

mixing_beta             0.4
mixing_gg0              1.5


