INPUT_PARAMETERS
#Parameters	(General)
suffix			test
pseudo_dir              ../../../tests/PP_ORB
ntype               2
nbands              35
pseudo_type         upf201
gamma_only          0


calculation         nscf
symmetry             0

relax_nmax               1
out_level           ie
relax_method           cg
#out_chg          1
out_band            1
init_chg        file

smearing_method            gaussian
smearing_sigma             0.02
#Parameters (3.PW)
ecutwfc             50
scf_thr                 1e-8
scf_nmax               100
pw_diag_thr                0.00001
#cal_stress              1
#noncolin             1
lspinorb             1
nspin		     4

#Parameters (LCAO)
basis_type pw
chg_extrap       second-order
out_dm             0


mixing_beta         0.4
mixing_gg0          1.5


