INPUT_PARAMETERS
#Parameters (General)
suffix              autotest

calculation         md
pseudo_dir          ../../PP_ORB

#Parameters (esolver)
esolver_type        lj
lj_rcut             8.5
lj_epsilon          0.01032
lj_sigma            3.405

cal_force           1
cal_stress          1

#Parameters (MD)
md_nstep            5
md_type             nve
md_dt               1
md_tfirst           300

init_vel            1
