ATOMIC_SPECIES
Fe 1.000 Fe.upf

NUMERICAL_ORBITAL
Fe_gga_10au_100Ry_4s2p2d1f.orb

LATTICE_CONSTANT
1.889725989

LATTICE_VECTORS
    2.8328152400000000    0.0000000000000000    0.0000000000000000
    0.0000000000000000    2.8328152400000000    0.0000000000000000
    0.0000000000000000    0.0000000000000000    2.8328152400000000
ATOMIC_POSITIONS
Direct

Fe
1.0
2
0.0065619498357882    0.0053069211310611    0.0044946851820217    mag 1 5 0
0.5157301200287622    0.5061424472528978    0.5046549296222536    mag 1 5 0
