ATOMIC_SPECIES
Mg 24.305 Mg_ONCV_PBE-1.0.upf #comment for test
O  15.999 O_ONCV_PBE-1.0.upf arbitrary #arbitray pp_type for test
