ATOMIC_SPECIES
Mg 24.305 Mg_ONCV_PBE-1.0.upf upf201 #lable name pp_file pp_type
O  15.999 O_ONCV_PBE-1.0.upf upf201

NUMERICAL_ORBITAL
Mg_gga_8au_100Ry_4s2p1d.orb
O_gga_8au_100Ry_2s2p1d.orb

NUMERICAL_DESCRIPTOR
jle.orb

LATTICE_CONSTANT
1.8897259886 	# 1.8897259886 Bohr = 1.0 Angstrom

LATTICE_PARAMETERS
0.5
0.5
0.5
0.5
0.5
