INPUT_PARAMETERS
#Parameters	(General)
suffix              autotest
pseudo_dir		./
ntype			1	
nbands			8
calculation             scf
#Parameters (Accuracy)
ecutwfc			20
scf_nmax			20

gamma_only      1
basis_type		lcao
relax_nmax                   1

ks_solver               genelpa
mixing_type         pulay
mixing_beta         0.7
mixing_gg0          1.5
