ATOMIC_SPECIES
C  12.0  C_ONCV_PBE-1.0.upf

NUMERICAL_ORBITAL
C_gga_8au_100Ry_2s2p1d.orb

LATTICE_CONSTANT
1.89035917

LATTICE_VECTORS
10.0 0.0 0.0 #latvec3
0.0 10.0  0.0
0.0 0.0 10.0

ATOMIC_POSITIONS
Direct

C #label
0 #magnetism
3 #number of atoms
0.2 0.0000000000000000  0.0000000000000000 1 1 1
0.4 0.0000000000000000  0.0000000000000000 1 1 1
0.6 0.0000000000000000  0.0000000000000000 1 1 1

