INPUT_PARAMETERS
#Parameters (General)
kpoint_file             KLINES
pseudo_dir              ../../../tests/PP_ORB
orbital_dir             ../../../tests/PP_ORB
calculation             nscf
ntype                   1
nbands                  8 
symmetry                0
#Parameters (Methos)
basis_type              lcao
#Parameters (Accuracy)
ecutwfc                 50
#Parameters (File)
init_chg                file
out_band                1
