INPUT_PARAMETERS
#Parameters (1.General)
suffix			autotest
calculation     scf
esolver_type    sdft
method_sto      1

symmetry		0
pseudo_dir	../../PP_ORB


nbands			0
nbands_sto		all

nche_sto		120
seed_sto        20000
emax_sto              23.5079108951
emin_sto              -4.40353816868
kpar            1
cal_force       1
cal_stress      1

#Parameters (2.Iteration)
ecutwfc			20
scf_thr			1e-4
scf_nmax		20


#Parameters (3.Basis)
basis_type		pw

#Parameters (4.Smearing)
smearing_method		fd
smearing_sigma		0.6

#Parameters (5.Mixing)
mixing_type		broyden
mixing_beta		0.4
