ATOMIC_SPECIES
N 14.007 N_ONCV_PBE-1.0.upf upf201

NUMERICAL_ORBITAL
N_gga_10au_100Ry_2s2p1d.orb

LATTICE_CONSTANT
1.88972612584

LATTICE_VECTORS
8.0214 0 0 #latvec1
0 8.0214 0 #latvec2
0 0 9.4797 #latvec3

ATOMIC_POSITIONS
Direct

N #label
0 #magnetism
2 #number of atoms
0.498791832357  0.501208167641  0.441877873494  m  0 0 0
0.501208167643  0.498791832359  0.558122126506  m  0 0 0
