ATOMIC_SPECIES
He 4.0026

LATTICE_CONSTANT
1.889727

LATTICE_VECTORS
20 0 0 #latvec1
0 20 0 #latvec2
0 0 20 #latvec3

ATOMIC_POSITIONS
Cartesian

He #label
0 #magnetism
256 #number of atoms
0.0395282681499  19.9875026246  0.0225545285933  m  1  1  1  v  0.00035679220224  -0.000111458684798  0.000201012054413
0.0208052727425  19.9727882152  5.04463626397  m  1  1  1  v  0.000190725564297  -0.000244877570426  0.000401072453299
19.9261145858  0.0179089912499  9.98218874468  m  1  1  1  v  -0.000668853369869  0.000160752737663  -0.000163559079546
0.0860635438268  19.910492164  15.0078318634  m  1  1  1  v  0.000772381278512  -0.000804879892726  7.97985081955e-05
0.0296935610177  5.05672913411  19.9570456274  m  1  1  1  v  0.000267902166743  0.000511536580908  -0.000387095194512
0.00721910705264  4.9869954853  5.0100236681  m  1  1  1  v  6.27804496663e-05  -0.000115722773247  8.39060387159e-05
19.950412369  4.98818200908  10.0001951518  m  1  1  1  v  -0.000447972158812  -0.000110323954863  8.06381005944e-07
0.0444287869092  5.03489280771  14.9373998885  m  1  1  1  v  0.000393411649482  0.000311845927332  -0.000559460179446
0.0840188402595  10.0168878692  19.9979542291  m  1  1  1  v  0.000758350731818  0.000151009869932  -2.07560729559e-05
0.0138204434325  9.97140772912  5.03739238217  m  1  1  1  v  0.000122411855103  -0.000254696958975  0.000333902669319
0.00108929925924  10.0634673557  9.98911240705  m  1  1  1  v  7.93992031833e-06  0.00057167044486  -0.000100289845711
0.0308222884851  9.94829516299  14.9622159483  m  1  1  1  v  0.000278178221207  -0.000462895289536  -0.000339491186865
19.9972516379  14.9667858929  19.9561139229  m  1  1  1  v  -2.36787846249e-05  -0.00029845016016  -0.000390652819507
0.0175858595812  15.0327765523  4.98603044412  m  1  1  1  v  0.000159555756533  0.000296657572617  -0.000128426763185
19.992246593  14.9725075203  9.93009506168  m  1  1  1  v  -6.94345448595e-05  -0.000248116941273  -0.000631103948833
0.00667653852348  14.9756870077  15.0518464234  m  1  1  1  v  6.09840248926e-05  -0.000217545334856  0.000467865458992
5.00133794269  0.0841427183152  1.63438538214e-05  m  1  1  1  v  1.38210724741e-05  0.000750756912997  2.53705897433e-06
4.97269796094  19.9970008129  5.02753483556  m  1  1  1  v  -0.000242825818106  -2.75471564522e-05  0.000247678092193
5.00790382625  0.00758112241116  9.96286772882  m  1  1  1  v  7.37778473637e-05  6.38687605026e-05  -0.000331339924797
5.03420981309  0.0540877941919  14.9432656069  m  1  1  1  v  0.000303913000191  0.000490661764311  -0.000514112912331
5.01531956208  4.96514249682  19.992158951  m  1  1  1  v  0.000139762902843  -0.000317209437303  -6.69782859848e-05
5.03536796678  5.0399804949  4.97834030425  m  1  1  1  v  0.000317134153785  0.000355935356374  -0.000193796546584
4.98551095087  5.01522696743  9.95557376824  m  1  1  1  v  -0.000127028163992  0.000135360005898  -0.000397242189266
5.04837513745  5.02234210605  15.0024797295  m  1  1  1  v  0.000431696932303  0.000200291165024  2.28699687699e-05
5.0110296966  10.0372962275  19.9937518468  m  1  1  1  v  0.000102149976133  0.000333218753486  -5.93113032839e-05
5.02595224888  9.98557765105  5.04738055867  m  1  1  1  v  0.000229410271268  -0.000127912170653  0.000429118446715
5.00555108447  10.024777421  9.99451182024  m  1  1  1  v  4.90112458355e-05  0.000221730516975  -5.21625586555e-05
4.9351038128  10.0785634405  14.9609131884  m  1  1  1  v  -0.000584677931372  0.000701682953613  -0.000352537186179
5.02686594932  14.9427768352  0.0384580582852  m  1  1  1  v  0.000239403872769  -0.000513981113271  0.000340330887553
4.96791664886  14.9896720766  4.93846836726  m  1  1  1  v  -0.000286509495082  -9.27738972814e-05  -0.000551992859956
4.96158498345  14.9774582685  10.0551294189  m  1  1  1  v  -0.0003477787565  -0.000201267223338  0.000498692725705
4.91121661402  15.0003217387  15.062836589  m  1  1  1  v  -0.000799005902313  7.1230360837e-06  0.000565266974084
10.0564910317  19.9622336692  0.0519069912005  m  1  1  1  v  0.000508295614238  -0.000341389710519  0.000468133396497
9.96706196868  19.9706665121  4.95869223293  m  1  1  1  v  -0.000293017796665  -0.000264872253486  -0.000370762577183
10.015044891  19.941609054  9.97040410692  m  1  1  1  v  0.000141069389055  -0.000523474247414  -0.000261977591827
10.0139270647  19.9870529312  15.0092185884  m  1  1  1  v  0.000127650003332  -0.000120179100943  8.09315696519e-05
9.96722215425  5.02136170629  19.9716521233  m  1  1  1  v  -0.000296263534305  0.000189969005379  -0.000259541085655
9.9961615646  4.97441821777  4.97670849257  m  1  1  1  v  -3.71778605679e-05  -0.00022930979686  -0.00021081814602
10.0281242556  5.02744106064  10.0014809978  m  1  1  1  v  0.000248493149197  0.000249928788761  1.55328752752e-05
10.0040475278  5.02859200422  15.0496188446  m  1  1  1  v  3.60709304342e-05  0.000254520524442  0.000448359015735
9.99633295718  9.96852121954  19.9922426793  m  1  1  1  v  -3.79301057801e-05  -0.000281710878607  -6.49634946239e-05
10.0478123062  10.0188637265  5.05899949171  m  1  1  1  v  0.000433217729797  0.000171665873176  0.000522813221042
10.0092247028  9.9524772272  9.95344026139  m  1  1  1  v  8.00465358875e-05  -0.000425519095345  -0.000422257587758
9.98089718395  9.91954154892  15.0288464397  m  1  1  1  v  -0.000166703593386  -0.000715467033549  0.000257531297078
10.0842436749  14.9480144169  0.0104511760551  m  1  1  1  v  0.000759407843007  -0.000468214056087  9.83142889016e-05
9.96946847487  15.0091694405  5.06285836048  m  1  1  1  v  -0.000277550787792  8.67104999018e-05  0.000569171156535
10.0032327772  15.040738519  10.0524570947  m  1  1  1  v  3.04452388412e-05  0.000357492488079  0.000472188406151
10.0228876522  15.0041321638  15.0005985531  m  1  1  1  v  0.000200780638168  3.88728692608e-05  1.20066084123e-06
15.0789192633  19.9997717052  19.9846213404  m  1  1  1  v  0.000713296858268  -4.04104727263e-06  -0.000133677452526
15.0085086105  0.0311362754625  4.94787828979  m  1  1  1  v  7.26888835085e-05  0.000280966227836  -0.00047387055894
15.0198335493  19.9494767489  10.0442614529  m  1  1  1  v  0.000182348039673  -0.000460014468323  0.000394687018243
14.9526534309  19.9722057628  14.9530092223  m  1  1  1  v  -0.000431417447223  -0.000253789981454  -0.000424494947181
14.96904209  5.00938091916  19.9505152816  m  1  1  1  v  -0.000282896422431  8.60130291156e-05  -0.000448244048267
15.0210112086  5.00169218407  5.01758742927  m  1  1  1  v  0.000187396929526  1.53680269972e-05  0.000156423781739
14.9248375895  5.01600340227  10.0117547606  m  1  1  1  v  -0.000680801024518  0.000146038598744  0.000103962325486
14.9708854003  4.97114500596  15.0963343846  m  1  1  1  v  -0.000267815480973  -0.000258656532726  0.000869560509913
15.021767484  9.9982849385  19.981078641  m  1  1  1  v  0.000199077498573  -1.57115040985e-05  -0.000166161810756
15.0321340421  9.9336173741  5.04101998809  m  1  1  1  v  0.000289626406647  -0.000599826282488  0.000365069491868
15.0200472336  9.98119167844  10.0794330303  m  1  1  1  v  0.000183052773405  -0.000172462329318  0.000712017247676
14.9870309725  9.99410497858  14.9215278501  m  1  1  1  v  -0.000118505333939  -5.33636549207e-05  -0.000701371651884
15.0182376741  14.9668150063  0.00286644211968  m  1  1  1  v  0.00016720689007  -0.000296861917947  2.36067356555e-05
14.977754626  14.9716152535  5.0657400911  m  1  1  1  v  -0.000195569503036  -0.000256475374381  0.000590988552371
15.0514283946  15.0457199179  9.97744136562  m  1  1  1  v  0.000460587381047  0.000406702588107  -0.000205440092183
14.952119852  15.0556489076  15.0618811274  m  1  1  1  v  -0.000431609804371  0.000500420107297  0.000559330190028
2.54249898161  2.46590534778  0.0243575793592  m  1  1  1  v  0.000377797274089  -0.000303848238889  0.000219925852725
2.46296387089  2.52253705143  5.00758919838  m  1  1  1  v  -0.000331384007198  0.00020398660591  6.689106413e-05
2.52651613864  2.45097465387  10.0013770602  m  1  1  1  v  0.000233440817449  -0.000439281677292  1.86234662327e-05
2.46035910224  2.48694061346  15.0211669185  m  1  1  1  v  -0.000355927540631  -0.00011697566186  0.000195158147224
2.50654937038  7.47698867253  19.9652004485  m  1  1  1  v  6.62678219865e-05  -0.000205084667791  -0.000315913616316
2.4832936477  7.56186382692  5.07200749  m  1  1  1  v  -0.000149460544496  0.000557965004679  0.000649352186552
2.53400817565  7.45197468721  10.0366881911  m  1  1  1  v  0.000306571879888  -0.000429651689004  0.000332094472462
2.46597877399  7.4786628627  14.9572188497  m  1  1  1  v  -0.000300166289887  -0.000191225833776  -0.000384080233239
2.53460410669  12.481152814  19.9455187795  m  1  1  1  v  0.000316832832457  -0.000166844952419  -0.000493620707859
2.48418097878  12.5421515995  5.02921797988  m  1  1  1  v  -0.000144788603003  0.000377786884695  0.000264333387114
2.46533633125  12.515860788  9.97572536388  m  1  1  1  v  -0.000314110579279  0.000144976377282  -0.00022193825952
2.5476536486  12.5175051331  14.9852594209  m  1  1  1  v  0.000421912982831  0.000164080026978  -0.000132735986908
2.552016249  17.5104014667  19.9873541689  m  1  1  1  v  0.000471441928232  9.08574270984e-05  -0.000108382541372
2.51756388226  17.498764393  5.10775174562  m  1  1  1  v  0.000159075659933  -7.56047124279e-06  0.000965985189173
2.46447001103  17.4811407576  10.043253479  m  1  1  1  v  -0.000324690970355  -0.000165913903815  0.00038947226368
2.49412340838  17.4961544564  15.0456896589  m  1  1  1  v  -5.18910774904e-05  -3.83119986236e-05  0.000411486464413
7.493725335  2.42671163733  19.9602245073  m  1  1  1  v  -5.33430337933e-05  -0.000656805535194  -0.000356142670977
7.51678525385  2.51812766412  4.97129928419  m  1  1  1  v  0.000146318514261  0.000161291618992  -0.000260574917073
7.59522373043  2.49410405894  10.0289645495  m  1  1  1  v  0.000859325320384  -4.90160883269e-05  0.000264044037871
7.51531500581  2.47686440734  14.9772529028  m  1  1  1  v  0.000139964943213  -0.000209158839329  -0.000205941521528
7.49485447711  7.45915304299  19.9606284202  m  1  1  1  v  -4.62251547853e-05  -0.000366975504858  -0.000356370909582
7.48069195776  7.49336132893  5.01804175666  m  1  1  1  v  -0.000170145800357  -5.81693860861e-05  0.000163649639751
7.52554669765  7.51043432192  10.0143339664  m  1  1  1  v  0.000228958459656  9.46872620807e-05  0.000128104673591
7.50981994882  7.49928646308  14.9144241597  m  1  1  1  v  8.12412071352e-05  -5.84430875943e-06  -0.000765457768828
7.45183886019  12.5664924545  0.0247578683841  m  1  1  1  v  -0.00042760461101  0.000596686769238  0.000226027356298
7.4367802526  12.4699214611  5.00992128324  m  1  1  1  v  -0.000571158133592  -0.000267127754881  8.42008572246e-05
7.45932275496  12.4454810639  9.98764626849  m  1  1  1  v  -0.000363144870408  -0.000492968329543  -0.000111584685389
7.4693375946  12.4967390196  15.026045047  m  1  1  1  v  -0.000271597660708  -2.59322413241e-05  0.000227270603315
7.51750978087  17.4382011063  0.027206253815  m  1  1  1  v  0.000159562388757  -0.000559888850124  0.000241895520473
7.54293112306  17.4996574052  4.94970120817  m  1  1  1  v  0.000386996224133  1.03937803087e-06  -0.00044521140423
7.52999100141  17.5128236753  10.0018249906  m  1  1  1  v  0.000264686746232  0.000115703439652  1.52368768452e-05
7.43657140045  17.5646612214  14.9168833519  m  1  1  1  v  -0.000572029448412  0.000577475492124  -0.000745465030298
12.5410123052  2.48668428917  19.9524518166  m  1  1  1  v  0.000366967965937  -0.000115560547443  -0.00042909167365
12.4636634107  2.55517760417  5.03096993471  m  1  1  1  v  -0.000330518509177  0.00049498718961  0.000278257363694
12.5229232735  2.52826130561  9.98443025962  m  1  1  1  v  0.000205044268467  0.000252799523229  -0.000141603826683
12.4689968771  2.52848243903  15.0147908473  m  1  1  1  v  -0.000282570742986  0.000258115921099  0.000133908835431
12.4700615466  7.49851555064  19.940004581  m  1  1  1  v  -0.000273243832467  -1.1971221206e-05  -0.000532607046437
12.489755994  7.46842334695  4.9886726523  m  1  1  1  v  -9.14596121726e-05  -0.000287819788566  -0.000104345494147
12.443375885  7.54246599793  10.0084887431  m  1  1  1  v  -0.000508198671075  0.000386463312475  7.61377600423e-05
12.4833112897  7.49242169391  15.057497295  m  1  1  1  v  -0.000141643744441  -6.59668077016e-05  0.000511639682981
12.5682539703  12.4792935937  19.9598756716  m  1  1  1  v  0.000614542950045  -0.000187332915384  -0.000359647062655
12.5042058994  12.6011086455  5.03616434423  m  1  1  1  v  3.96572568309e-05  0.000912202902219  0.000323463040403
12.5423977327  12.432612642  9.98457094416  m  1  1  1  v  0.000381628810979  -0.000602750005907  -0.000146472072132
12.5215142525  12.4975444742  14.9473639808  m  1  1  1  v  0.000191741234375  -2.33095553264e-05  -0.000469186237101
12.5903490576  17.5235366747  0.0659156162126  m  1  1  1  v  0.000819945752255  0.000211709273762  0.000591737005142
12.5496826222  17.4810161111  5.02356660497  m  1  1  1  v  0.000446133440197  -0.000167521124345  0.000211145849909
12.4913995165  17.4395227241  10.0321734764  m  1  1  1  v  -6.75477890995e-05  -0.000545761630279  0.000288368299745
12.4731396585  17.4885137291  15.0328680865  m  1  1  1  v  -0.000245154334949  -9.81253650635e-05  0.000296903159298
17.473952427  2.54392309553  0.00203861207941  m  1  1  1  v  -0.000234957769975  0.000397171784481  1.91085231338e-05
17.484368419  2.47223680807  5.03116075076  m  1  1  1  v  -0.00014115767301  -0.000251552223973  0.000273015313792
17.5108808331  2.54446396524  9.9700234188  m  1  1  1  v  9.22271697032e-05  0.00040248459184  -0.000270727903647
17.4540094072  2.45124239286  15.0169264356  m  1  1  1  v  -0.000412106507315  -0.00044571377711  0.000154117208163
17.4662643791  7.51431117529  0.0348578277843  m  1  1  1  v  -0.000301507792236  0.000131556228697  0.000313366492315
17.5237417531  7.44960374732  4.98092298054  m  1  1  1  v  0.000219719327457  -0.000456149746067  -0.000180156971063
17.4222804191  7.47495145934  9.94436772719  m  1  1  1  v  -0.000696766094716  -0.000229979186107  -0.00050143629221
17.4720800471  7.50564133081  14.9503489276  m  1  1  1  v  -0.000251814104217  4.70686253471e-05  -0.000443879083049
17.4965671066  12.489148842  19.9387720875  m  1  1  1  v  -2.75908770696e-05  -9.8236040655e-05  -0.000552469760891
17.4364814527  12.4657435596  5.04144116676  m  1  1  1  v  -0.000571987343993  -0.000310609944419  0.000371446818927
17.4434757654  12.5332118691  10.0023394086  m  1  1  1  v  -0.000514743101006  0.000298099745432  1.99902160069e-05
17.5273832818  12.5245996843  15.0374673609  m  1  1  1  v  0.000244451064693  0.000219351295463  0.000338525417788
17.5400252295  17.4581311281  0.00302959894031  m  1  1  1  v  0.000358823601302  -0.000382182198601  2.82892903477e-05
17.5433658696  17.5521921546  5.05951289171  m  1  1  1  v  0.000389848666568  0.00047149416055  0.000533709341747
17.5137122206  17.401797439  9.96369393097  m  1  1  1  v  0.000126983084515  -0.000884633866305  -0.000327780359856
17.5498694949  17.5423911587  15.0227152946  m  1  1  1  v  0.00044760597719  0.000382923470155  0.000208240733731
2.47813816815  0.00806384910712  2.45123790133  m  1  1  1  v  -0.000196562857134  6.53728875968e-05  -0.00043298643606
2.5128879127  0.0714760210587  7.52235195713  m  1  1  1  v  0.000112265289379  0.000642981447608  0.000205185609716
2.45983890061  19.9580952048  12.5140963455  m  1  1  1  v  -0.000360759137347  -0.000378043254815  0.000124139697831
2.53144832158  19.9597666099  17.4776316933  m  1  1  1  v  0.000279914573217  -0.000357651371562  -0.000200535757746
2.50902585673  5.03299127826  2.54166852951  m  1  1  1  v  8.15214037063e-05  0.000297618182205  0.000376621966113
2.44235255303  5.00620944889  7.49424803173  m  1  1  1  v  -0.000518451666164  5.36048040433e-05  -5.07530725279e-05
2.4461882322  5.00142097266  12.5363457789  m  1  1  1  v  -0.000478980816783  6.34158317053e-06  0.000323195848601
2.5156425234  4.96920091964  17.5606186428  m  1  1  1  v  0.000145392659992  -0.000279109497126  0.000542359253161
2.53825996721  10.0068108446  2.50271172496  m  1  1  1  v  0.000346706600553  6.17158218697e-05  2.75445750539e-05
2.50261491686  10.0048994062  7.52787666127  m  1  1  1  v  2.32910471056e-05  4.75497112092e-05  0.000256241187588
2.4821462815  10.1205654895  12.5477385724  m  1  1  1  v  -0.000164620627962  0.00108837558293  0.000423525592272
2.50999309416  10.0195553749  17.4906584186  m  1  1  1  v  9.04803357397e-05  0.000172367697921  -8.87800202025e-05
2.53462178925  15.01101692  2.52551400432  m  1  1  1  v  0.000307787503483  0.000104706313721  0.000225872744834
2.54652789127  15.026413679  7.52550738063  m  1  1  1  v  0.000418824073518  0.000235663675153  0.000231981841602
2.43540829513  15.0273338745  12.4939862488  m  1  1  1  v  -0.000587246671685  0.000245733801075  -5.19084683771e-05
2.44473571392  15.0138314723  17.5141381057  m  1  1  1  v  -0.000492918147157  0.000124879299004  0.000132191318101
7.52792767842  0.0157796869535  2.4430477922  m  1  1  1  v  0.000248678938058  0.000141162822161  -0.000514308156637
7.56566430269  0.0464387317474  7.56637138525  m  1  1  1  v  0.000590999293253  0.000414232336354  0.0005940530332
7.50025105517  19.9544579042  12.5011043555  m  1  1  1  v  4.48033019918e-06  -0.000410493943307  2.86494351958e-06
7.47665552786  0.0766835010956  17.5051844086  m  1  1  1  v  -0.000211154653942  0.000681576754356  4.57969705992e-05
7.54575942203  5.003382356  2.45778551524  m  1  1  1  v  0.000408381542141  2.72477238339e-05  -0.000383924137295
7.49405412449  5.00173385566  7.47293136693  m  1  1  1  v  -5.15893398458e-05  1.36376283661e-05  -0.000242028124609
7.54262488187  4.98378920255  12.5820038146  m  1  1  1  v  0.000385827435285  -0.000146741596343  0.000734833777678
7.46589529851  4.95779530966  17.4876342013  m  1  1  1  v  -0.00030641051142  -0.000383524072912  -0.000113880069951
7.4361338673  9.97953052309  2.51050891857  m  1  1  1  v  -0.000573897508289  -0.000184222254493  9.4293217024e-05
7.54666150814  10.0868505097  7.44320185684  m  1  1  1  v  0.000418639318953  0.000779448913057  -0.000509886100454
7.49467794451  10.0090334247  12.5664199557  m  1  1  1  v  -4.81230388933e-05  8.8471367859e-05  0.000597416631889
7.54211084179  9.97376598544  17.4706361984  m  1  1  1  v  0.000379624478459  -0.00023764624654  -0.000264612535774
7.50361569217  15.0276323701  2.56599498416  m  1  1  1  v  4.09239880288e-05  0.000244873027835  0.000596752205595
7.48431196257  14.9933278439  7.54439590692  m  1  1  1  v  -0.000144406802931  -5.78449763885e-05  0.000402761597759
7.50831659543  15.01014245  12.4175322739  m  1  1  1  v  7.37113963926e-05  9.03622512418e-05  -0.000739290007691
7.51286810611  14.9412680714  17.4933829968  m  1  1  1  v  0.000115423778029  -0.000521965736317  -6.19855304021e-05
12.5208538085  19.9995785083  2.44539458088  m  1  1  1  v  0.000193079837151  1.30318639876e-06  -0.000487950945862
12.4881936493  0.0305723963627  7.52623443946  m  1  1  1  v  -0.000101929248286  0.000274461449695  0.00023547250911
12.5114598434  19.9913510875  12.431070501  m  1  1  1  v  0.000101640570707  -7.79381119663e-05  -0.000622242748004
12.456065975  0.081338098  17.5701780269  m  1  1  1  v  -0.000394318055885  0.00073004964268  0.000631745401863
12.5136620206  4.95378266527  2.48411541801  m  1  1  1  v  0.000120039199267  -0.000414800238715  -0.000147875470438
12.4063298199  5.01099088887  7.52416356816  m  1  1  1  v  -0.000843149565582  0.000102478464999  0.000217147190973
12.442689688  5.02072906252  12.4783760978  m  1  1  1  v  -0.000519300608376  0.000191687457692  -0.000189806807201
12.4467871714  5.07053204141  17.5424254662  m  1  1  1  v  -0.000481105749838  0.000629987039454  0.000383615477683
12.5620939328  10.0378658184  2.47149300482  m  1  1  1  v  0.000561294223015  0.000342429955136  -0.000254790409508
12.4989936698  10.0164253188  7.43648555691  m  1  1  1  v  -4.044428599e-06  0.000145885182118  -0.000572457347384
12.5154003256  10.0562575163  12.4477586956  m  1  1  1  v  0.000130766453029  0.000498053282423  -0.000468040491691
12.4870128943  9.9990577675  17.5560707556  m  1  1  1  v  -0.000115766606747  -4.26369775209e-06  0.000500851560576
12.4989621586  15.0141392845  2.46649438795  m  1  1  1  v  -7.35904352419e-06  0.000126728926418  -0.000298829806491
12.4757588658  15.0357037813  7.48664024182  m  1  1  1  v  -0.000218849512951  0.000317993258164  -0.000111659367469
12.5120878532  15.0114645457  12.490806634  m  1  1  1  v  0.000111811233284  9.77504786067e-05  -8.31585240756e-05
12.4246589141  15.0398563117  17.5114678927  m  1  1  1  v  -0.000677463176228  0.000359674593968  0.000105761312092
17.5028103499  0.0165891036109  2.4644464145  m  1  1  1  v  2.42168725097e-05  0.000151441967385  -0.000320499392216
17.4714522292  19.9810247248  7.4805822296  m  1  1  1  v  -0.000261422160209  -0.000172077724284  -0.000170372672088
17.5124272521  19.9561960733  12.4801866307  m  1  1  1  v  0.000109907749126  -0.00039651276351  -0.000179061610426
17.4820709624  19.9795687071  17.5825011373  m  1  1  1  v  -0.00015564491401  -0.000185188211398  0.000742381550615
17.50203751  4.9746276133  2.39888288792  m  1  1  1  v  1.76206869664e-05  -0.000229785143215  -0.000911042964709
17.4916353123  4.97973367152  7.42839353196  m  1  1  1  v  -7.58951815843e-05  -0.000183696077367  -0.000644260996593
17.4875161192  5.01277439601  12.5097580047  m  1  1  1  v  -0.000116790431447  0.000111401303427  8.96767551458e-05
17.4421351617  4.9818124622  17.495334127  m  1  1  1  v  -0.000520465556957  -0.000160768796856  -4.44310915759e-05
17.5240618815  10.024606659  2.47683103664  m  1  1  1  v  0.000221001979707  0.00022348262427  -0.000208228569945
17.4962534394  9.95758559766  7.5221263986  m  1  1  1  v  -3.06316449947e-05  -0.000381505758917  0.000202298194935
17.5437612952  9.95963638286  12.5303033392  m  1  1  1  v  0.000400921010867  -0.00036047377785  0.00027056626709
17.5073596302  9.99544778259  17.4817529757  m  1  1  1  v  7.12625096772e-05  -4.15720705021e-05  -0.000168332704521
17.5194600522  15.0289085566  2.54495621544  m  1  1  1  v  0.000176246907791  0.000258854315447  0.00040960042016
17.5374075122  15.0258222993  7.48658625043  m  1  1  1  v  0.000335442954537  0.000230500590497  -0.000127626352296
17.5360567038  14.9682162005  12.5190588191  m  1  1  1  v  0.000321495606393  -0.000286950179609  0.000177479463459
17.4743167251  15.0062692379  17.4744476773  m  1  1  1  v  -0.000234902534679  5.95387365542e-05  -0.000230963771355
19.9792604036  2.47897859651  2.50339206441  m  1  1  1  v  -0.000187221861378  -0.000187409772452  3.00244280709e-05
19.9697134691  2.49267913339  7.4314376291  m  1  1  1  v  -0.000274535988905  -6.67336099223e-05  -0.000615588318663
0.00731356542449  2.45347083534  12.599953263  m  1  1  1  v  6.17034553571e-05  -0.000422994772411  0.000901441248184
19.9665634099  2.53366973394  17.599143279  m  1  1  1  v  -0.000302287470145  0.000301534175847  0.000892816603804
0.0247518612418  7.46584634107  2.44393347963  m  1  1  1  v  0.000224928322968  -0.000305910303171  -0.000504279161067
0.0257354129118  7.50233109873  7.48472404057  m  1  1  1  v  0.000229196842571  2.05306909632e-05  -0.000130399997311
0.0173702842621  7.49349464267  12.43995771  m  1  1  1  v  0.000154958983621  -5.52733748272e-05  -0.000550459190817
19.9992963566  7.46783147031  17.4331982597  m  1  1  1  v  -9.55225936105e-06  -0.000290323266298  -0.000604012519056
0.0497188153758  12.5453865353  2.4819619462  m  1  1  1  v  0.000448807587903  0.000409580684803  -0.000161897801688
19.9279626571  12.5507319921  7.45744945662  m  1  1  1  v  -0.000650897047438  0.000456484947207  -0.00038701409875
19.9647033642  12.5287712402  12.4534267255  m  1  1  1  v  -0.000320562166427  0.000261435704466  -0.000418329850307
0.0292067563029  12.543808704  17.5104084216  m  1  1  1  v  0.000264007384618  0.000388836539249  9.02967565746e-05
19.9461007638  17.5474718017  2.50207985595  m  1  1  1  v  -0.000480771586649  0.000426943993349  1.99449393828e-05
0.0430148593331  17.4670813584  7.46512286447  m  1  1  1  v  0.000391099571356  -0.000293816037771  -0.000308539802198
19.9631402827  17.5020503781  12.5334369908  m  1  1  1  v  -0.000334425762189  1.31665225186e-05  0.000298924850446
0.00506282552385  17.5063432198  17.5512092591  m  1  1  1  v  4.53397408435e-05  5.7399433329e-05  0.000465519796089
4.93964138749  2.45158375741  2.4907025782  m  1  1  1  v  -0.000541687828934  -0.000433571103847  -7.73902768171e-05
4.99504709584  2.46038636613  7.53957489946  m  1  1  1  v  -3.97800968981e-05  -0.000351567506333  0.000354076626252
5.04832365129  2.50263126113  12.4956304997  m  1  1  1  v  0.000434488801105  2.66987571507e-05  -4.3394810683e-05
4.96225234346  2.44602679126  17.4951145939  m  1  1  1  v  -0.000343194108922  -0.000484118035083  -4.99563842029e-05
4.98417756702  7.49462635691  2.55903718485  m  1  1  1  v  -0.000143857295486  -4.84266742086e-05  0.000529411204985
5.02713710556  7.50631748534  7.49403302328  m  1  1  1  v  0.000246487014282  5.91498311002e-05  -4.99942722864e-05
4.98884705362  7.56601263729  12.5193181872  m  1  1  1  v  -0.00010290119364  0.000596416703151  0.000172644244169
5.05832183746  7.5076868121  17.5089259445  m  1  1  1  v  0.000525030608796  7.23391402226e-05  7.48580038478e-05
4.98875667638  12.5054841362  2.46664246306  m  1  1  1  v  -0.000104080142294  4.68903379626e-05  -0.00029620205318
4.95794153513  12.5392990046  7.4641558536  m  1  1  1  v  -0.00038109227104  0.000356466335044  -0.000321747710708
5.00374158359  12.488146696  12.4559055032  m  1  1  1  v  3.43343921932e-05  -0.00010012766333  -0.000397820414671
5.0465200898  12.4411655411  17.4078641477  m  1  1  1  v  0.000419082147056  -0.000530234305074  -0.000826142536429
5.04084427165  17.4491381111  2.50911700953  m  1  1  1  v  0.000366586907592  -0.00045151637245  8.15546125856e-05
4.95560145233  17.4729214584  7.49025719704  m  1  1  1  v  -0.000392955055009  -0.000242892647258  -8.37667321515e-05
4.95956758999  17.5166653243  12.5138920849  m  1  1  1  v  -0.000369047890003  0.000148378670794  0.000123329826007
4.94059404779  17.582925925  17.512460936  m  1  1  1  v  -0.000526475455257  0.000746773846042  0.0001139054258
9.98910120693  2.51558088135  2.51081380142  m  1  1  1  v  -9.48671877238e-05  0.00013942408696  9.18889393994e-05
9.97704634929  2.47880643485  7.49904290306  m  1  1  1  v  -0.000206346249646  -0.000189969589494  -9.23162688346e-06
9.97673483355  2.44808765939  12.4916052272  m  1  1  1  v  -0.000205025074335  -0.000471133074296  -7.47536536925e-05
9.94638148049  2.42960495354  17.4736515262  m  1  1  1  v  -0.000483595357852  -0.00063098309975  -0.000235300801692
9.95259304735  7.49712770692  2.54004334453  m  1  1  1  v  -0.000425187782213  -2.17985675898e-05  0.000361692949898
10.0217083744  7.5056393702  7.44568959207  m  1  1  1  v  0.000191361408385  5.06170771186e-05  -0.000492346456945
9.92823604678  7.55888865773  12.5368591181  m  1  1  1  v  -0.000641587527032  0.000532082346896  0.000330559024763
10.0503811457  7.54044596421  17.4053998336  m  1  1  1  v  0.000444821539259  0.000362489160173  -0.000848383738885
10.0447851791  12.5130962237  2.54822331417  m  1  1  1  v  0.000402773696437  0.000115172974752  0.000436723456512
9.97344621763  12.4921434377  7.46648385768  m  1  1  1  v  -0.000237411509796  -6.41409417175e-05  -0.000296211149129
10.0436506047  12.4832836878  12.4993173579  m  1  1  1  v  0.000390484294971  -0.000152732101245  -7.35774407053e-06
9.99690226487  12.5122890978  17.5089629433  m  1  1  1  v  -2.64786854232e-05  0.000106386874971  7.95755095821e-05
10.0510148064  17.5361505933  2.51042388816  m  1  1  1  v  0.000464419766893  0.000320608069893  9.42832062813e-05
10.0881704009  17.5045613756  7.60679395827  m  1  1  1  v  0.000793550022099  4.08916982306e-05  0.000958093654337
10.0527334533  17.5237650342  12.4725266822  m  1  1  1  v  0.000475829525209  0.000215137610523  -0.000242559211853
10.0184781099  17.5295293036  17.5177520669  m  1  1  1  v  0.00016067424733  0.000269187630338  0.000163700685242
14.9539980906  2.52296120684  2.48571370139  m  1  1  1  v  -0.00041443011495  0.000208217740492  -0.000128794944716
14.9682574472  2.49507952785  7.42840043901  m  1  1  1  v  -0.000288493224451  -4.42696370615e-05  -0.00064227954453
14.9588095825  2.47580064802  12.5045144206  m  1  1  1  v  -0.00037128835681  -0.00021531561253  4.1177850949e-05
15.0123059675  2.43988060274  17.4997718478  m  1  1  1  v  0.000108386352032  -0.000544742905178  -3.88577243232e-06
14.9645442337  7.48370710639  2.53173394103  m  1  1  1  v  -0.000320855986772  -0.000148767824566  0.000284105077954
15.0739554264  7.520067381  7.48479020113  m  1  1  1  v  0.000658641480739  0.00017718639857  -0.000136693631757
15.0533223812  7.54455558532  12.515962578  m  1  1  1  v  0.000473457964214  0.000395229683674  0.000145124357891
15.011594461  7.55519842188  17.5680549638  m  1  1  1  v  0.000105970374594  0.000501174334643  0.000609492089999
15.0241046504  12.5314017838  2.49026953028  m  1  1  1  v  0.000220088603803  0.000283835303084  -8.49591501804e-05
14.9789020549  12.4574431707  7.47950026491  m  1  1  1  v  -0.00018993649904  -0.000385356590416  -0.00017968749766
14.9563584153  12.4186009669  12.5095375717  m  1  1  1  v  -0.000385885043075  -0.00072484394837  8.71252937206e-05
14.9648316662  12.4858786297  17.5304710918  m  1  1  1  v  -0.000318297662332  -0.000127745545203  0.000266616722156
15.0047215074  17.4668074793  2.52868468237  m  1  1  1  v  4.98611141303e-05  -0.000301082941287  0.000263240172923
15.0195191469  17.4508556568  7.43176326898  m  1  1  1  v  0.000174563042816  -0.000438152529902  -0.000613628646035