INPUT_PARAMETERS
pseudo_dir                      ../../../tests/PP_ORB
orbital_dir                     ../../../tests/PP_ORB
suffix                          ABACUS
calculation                     scf
ecutwfc                         100
scf_thr                         1.0e-5
scf_nmax                        200
out_chg                         0
smearing_method                 gaussian
smearing_sigma                  0.07
mixing_type                     pulay
mixing_ndim                     10
mixing_beta                     0.1
ks_solver                       genelpa
basis_type                      lcao
symmetry                        0
noncolin                        true
nspin                           4
lspinorb                        true
out_mul                         true
