INPUT_PARAMETERS
#Parameters	(General)
suffix	            autotest
pseudo_dir          ../tools/PP_ORB/
ntype               2
#nbands             40
pseudo_type         upf201
gamma_only          0


calculation         scf
symmetry            1

#test_force         1
nstep               1
force_thr_ev        0.001
out_level           ie
move_method         cg
out_charge          1
#out_band           1
#start_charge       file

smearing            gaussian
sigma               0.001

ecutwfc             20
dr2                 1e-9
niter               100

#stress             1
#noncolin           1
lspinorb            1

basis_type          pw
ks_solver           cg
charge_extrap       second-order
out_dm              0
ethr                0.00001

mixing_type         pulay
mixing_beta         0.4
