INPUT_PARAMETERS
#Parameters (1.General)
suffix			autotest
calculation     	scf
ntype			2
nbands			6
symmetry		0

#Parameters (2.Iteration)
ecutwfc			50
dr2			1e-6
niter			50

#Parameters (3.Basis)
basis_type		lcao
gamma_only		1

#Parameters (4.Smearing)
smearing		gaussian
sigma			0.02

#Parameters (5.Mixing)
mixing_type		pulay
mixing_beta		0.4

#Parameters (6.File)
deepks_out_labels          0 
deepks_descriptor_lmax		2
deepks_scf		1
deepks_model		model_lda_pbe_18.ptg
force			1
