INPUT_PARAMETERS
#Parameters (1.General)
suffix			autotest
calculation     	scf

nbands			6
symmetry		0
pseudo_dir		../../PP_ORB
orbital_dir		../../PP_ORB

#Parameters (2.Iteration)
ecutwfc			50
scf_thr			1e-6
scf_nmax			50

#Parameters (3.Basis)
basis_type		lcao
gamma_only		1

#Parameters (4.Smearing)
smearing_method		gaussian
smearing_sigma			0.02

#Parameters (5.Mixing)
mixing_type		broyden
mixing_beta		0.4

#Parameters (6.File)
deepks_out_labels          1 
deepks_scf		1
deepks_model		model_lda_pbe_18.ptg
cal_force			1
cal_stress                      1
