INPUT_PARAMETERS
#Parameters (1.General)
suffix			autotest
calculation     	scf
ntype			2
nbands			6
symmetry		0

#Parameters (2.Iteration)
ecutwfc			50
scf_thr			1e-6
scf_nmax			50

#Parameters (3.Basis)
basis_type		lcao
gamma_only		1

#Parameters (4.Smearing)
smearing_method		gaussian
smearing_sigma			0.02

#Parameters (5.Mixing)
mixing_type		pulay
mixing_beta		0.4

#Parameters (6.File)
deepks_out_labels          0 
deepks_descriptor_lmax		2
newdm			1
deepks_scf		1
deepks_model		model_lda_pbe_18.ptg
cal_force			1
