ATOMIC_SPECIES
He 4.0026 He_ONCV_PBE-1.0.upf upf201

LATTICE_CONSTANT
1.889727

LATTICE_VECTORS
20 0 0 #latvec1
0 20 0 #latvec2
0 0 20 #latvec3

ATOMIC_POSITIONS
Cartesian

He #label
0 #magnetism
256 #number of atoms
1  0  0  m  1  1  1  v  0.000363498810688  -0.000115599316259  0.000208532216174
0  0  5  m  1  1  1  v  0.000190044213971  -0.000250589019426  0.000411368529577
0  0  10  m  1  1  1  v  -0.00067856283115  0.000165153947883  -0.000162514145215
0  0  15  m  1  1  1  v  0.000793629207975  -0.000824631572036  6.75973706964e-05
0  5  0  m  1  1  1  v  0.000272977551697  0.000522053403388  -0.000395321443607
0  5  5  m  1  1  1  v  6.75464234178e-05  -0.000120339806803  9.52769868371e-05
0  5  10  m  1  1  1  v  -0.000455836486774  -0.000106778860471  2.19374917253e-06
0  5  15  m  1  1  1  v  0.00041204419058  0.000322456717375  -0.000578348961434
0  10  0  m  1  1  1  v  0.000772734432578  0.00015604224759  -1.76318718144e-05
0  10  5  m  1  1  1  v  0.000128135702503  -0.000264484604125  0.000345678932836
0  10  10  m  1  1  1  v  1.08803482574e-05  0.000584388772483  -9.91795068755e-05
0  10  15  m  1  1  1  v  0.000283398321115  -0.000477433968128  -0.000348187185246
0  15  0  m  1  1  1  v  -2.59390331319e-05  -0.000306121123219  -0.000406164784895
0  15  5  m  1  1  1  v  0.000161416204955  0.000301124600925  -0.000127418807829
0  15  10  m  1  1  1  v  -7.14840098493e-05  -0.000252909903872  -0.00064280031438
0  15  15  m  1  1  1  v  6.10462442388e-05  -0.000224433208794  0.000476757472204
5  0  0  m  1  1  1  v  1.1380661235e-05  0.000777724118024  -1.06709716098e-06
5  0  5  m  1  1  1  v  -0.000252915949163  -2.73347888141e-05  0.000253652654611
5  0  10  m  1  1  1  v  7.16129206132e-05  7.17631809807e-05  -0.000343258025471
5  0  15  m  1  1  1  v  0.000316812926139  0.000496285879624  -0.000520739160753
5  5  0  m  1  1  1  v  0.000140214917638  -0.000319393639693  -7.39210255829e-05
5  5  5  m  1  1  1  v  0.00032629381367  0.000369990518462  -0.000200027337828
5  5  10  m  1  1  1  v  -0.000135089687596  0.000140970997902  -0.000410569556343
5  5  15  m  1  1  1  v  0.00044723568067  0.000206182849299  2.25347865654e-05
5  10  0  m  1  1  1  v  0.00010022615861  0.000344656914705  -5.61562196524e-05
5  10  5  m  1  1  1  v  0.000240920555801  -0.000133810909983  0.000435083396219
5  10  10  m  1  1  1  v  5.14664179878e-05  0.000228682689529  -4.92412399431e-05
5  10  15  m  1  1  1  v  -0.000597237682808  0.000725820583926  -0.000359803470658
5  15  0  m  1  1  1  v  0.000248359375939  -0.000527161431618  0.00035702748739
5  15  5  m  1  1  1  v  -0.000296523197521  -9.52622239982e-05  -0.000567350587301
5  15  10  m  1  1  1  v  -0.000352878744124  -0.000208344556941  0.000506454254904
5  15  15  m  1  1  1  v  -0.000817685543978  1.10656028697e-06  0.000579008784
10  0  0  m  1  1  1  v  0.000520221793024  -0.000347022812363  0.000477496101538
10  0  5  m  1  1  1  v  -0.000304995455669  -0.000269550653006  -0.000380837637147
10  0  10  m  1  1  1  v  0.000135917830402  -0.000538474441642  -0.000274352441999
10  0  15  m  1  1  1  v  0.000127140649369  -0.000117533431325  8.58389352585e-05
10  5  0  m  1  1  1  v  -0.000301254411291  0.000197818322987  -0.00025895066036
10  5  5  m  1  1  1  v  -3.41425902842e-05  -0.000235933045017  -0.000213909570494
10  5  10  m  1  1  1  v  0.00026104742917  0.000251291977369  1.26319746975e-05
10  5  15  m  1  1  1  v  3.74127261649e-05  0.000264601924278  0.00045611912085
10  10  0  m  1  1  1  v  -3.14011217614e-05  -0.000290775032482  -7.37778007204e-05
10  10  5  m  1  1  1  v  0.000438922387816  0.000172810412201  0.000547037355161
10  10  10  m  1  1  1  v  8.63233587361e-05  -0.000438564160321  -0.000427326106836
10  10  15  m  1  1  1  v  -0.000178369527579  -0.000744652161298  0.00026638670459
10  15  0  m  1  1  1  v  0.00077510617742  -0.000478676966725  9.42600023931e-05
10  15  5  m  1  1  1  v  -0.000279899915809  8.24531344196e-05  0.000577289003902
10  15  10  m  1  1  1  v  2.91377618724e-05  0.000379558490673  0.000483019369576
10  15  15  m  1  1  1  v  0.000213323688045  3.71563331087e-05  7.48269064239e-06
15  0  0  m  1  1  1  v  0.000725078074323  -1.164254086e-06  -0.000143686947821
15  0  5  m  1  1  1  v  8.023099009e-05  0.000286323534475  -0.00047779440339
15  0  10  m  1  1  1  v  0.00018085979911  -0.000462835121041  0.000409402715894
15  0  15  m  1  1  1  v  -0.000433541305364  -0.000254239114086  -0.000432096957417
15  5  0  m  1  1  1  v  -0.000283073905319  8.5621000836e-05  -0.000454316074468
15  5  5  m  1  1  1  v  0.00019422857237  1.5535584709e-05  0.000162736271652
15  5  10  m  1  1  1  v  -0.000690156062777  0.000146550912872  0.000109203061891
15  5  15  m  1  1  1  v  -0.000265415769188  -0.000266249245427  0.000886065193867
15  10  0  m  1  1  1  v  0.000198981953426  -1.55487417608e-05  -0.000176116874534
15  10  5  m  1  1  1  v  0.000295846213674  -0.000610310036845  0.000379660648341
15  10  10  m  1  1  1  v  0.000183555581526  -0.000171716967796  0.000732776836388
15  10  15  m  1  1  1  v  -0.00011856767826  -5.42157291398e-05  -0.00072483302992
15  15  0  m  1  1  1  v  0.000166517689679  -0.000306415994302  2.74661725595e-05
15  15  5  m  1  1  1  v  -0.000206952487956  -0.000261009366823  0.000605631510791
15  15  10  m  1  1  1  v  0.000474535869247  0.00042332295784  -0.000206672729471
15  15  15  m  1  1  1  v  -0.000440721470259  0.000512718703734  0.000568876414789
2.5  2.5  0  m  1  1  1  v  0.000393406735576  -0.000315261797679  0.000223797119296
2.5  2.5  5  m  1  1  1  v  -0.000341974096922  0.000206953559681  7.05222582936e-05
2.5  2.5  10  m  1  1  1  v  0.000246749123106  -0.000452368623011  9.87161218699e-06
2.5  2.5  15  m  1  1  1  v  -0.000365458161661  -0.000120576507882  0.000192844086096
2.5  7.5  0  m  1  1  1  v  5.68833361203e-05  -0.000212815104002  -0.000319188905781
2.5  7.5  5  m  1  1  1  v  -0.000154090950484  0.000569072966854  0.000662416202745
2.5  7.5  10  m  1  1  1  v  0.000312992691894  -0.000443617809421  0.000336838994255
2.5  7.5  15  m  1  1  1  v  -0.000316089703068  -0.000196748123756  -0.000394524825089
2.5  12.5  0  m  1  1  1  v  0.000316129342333  -0.000174842059536  -0.000500177991981
2.5  12.5  5  m  1  1  1  v  -0.000144644980668  0.000388959769386  0.000268425338319
2.5  12.5  10  m  1  1  1  v  -0.000318154674299  0.000145017806603  -0.000221894148132
2.5  12.5  15  m  1  1  1  v  0.000441955734643  0.000158349343674  -0.000135555566423
2.5  17.5  0  m  1  1  1  v  0.000477466964619  9.71210804437e-05  -0.000118990425282
2.5  17.5  5  m  1  1  1  v  0.00016130463755  -1.30830582473e-05  0.000994008103406
2.5  17.5  10  m  1  1  1  v  -0.000324886689728  -0.000175542225898  0.000398212677621
2.5  17.5  15  m  1  1  1  v  -5.45062180736e-05  -3.38832168439e-05  0.000420542021443
7.5  2.5  0  m  1  1  1  v  -5.91192613986e-05  -0.000675905424953  -0.000367042957209
7.5  2.5  5  m  1  1  1  v  0.000156847113307  0.00016782645607  -0.000263234366389
7.5  2.5  10  m  1  1  1  v  0.000875786469116  -5.62399475422e-05  0.000265120308247
7.5  2.5  15  m  1  1  1  v  0.00014007080432  -0.000212612552116  -0.000208907979761
7.5  7.5  0  m  1  1  1  v  -4.73957957086e-05  -0.000376445600254  -0.0003615752482
7.5  7.5  5  m  1  1  1  v  -0.000179480282012  -6.18436082069e-05  0.00016554323977
7.5  7.5  10  m  1  1  1  v  0.000235672970939  9.5658387592e-05  0.000132464774501
7.5  7.5  15  m  1  1  1  v  9.36472064792e-05  -6.92722463846e-06  -0.000789978021241
7.5  12.5  0  m  1  1  1  v  -0.000446134432332  0.000613093736847  0.000226473903167
7.5  12.5  5  m  1  1  1  v  -0.000581166605888  -0.000278477459162  9.35833319211e-05
7.5  12.5  10  m  1  1  1  v  -0.000376010517087  -0.000500937915902  -0.00011358666157
7.5  12.5  15  m  1  1  1  v  -0.00028428152453  -3.17115727283e-05  0.000243090423837
7.5  17.5  0  m  1  1  1  v  0.000160424155187  -0.000567503509545  0.00025206354912
7.5  17.5  5  m  1  1  1  v  0.000394955126252  -5.06899535953e-06  -0.000466947146251
7.5  17.5  10  m  1  1  1  v  0.000278707466614  0.000117992317085  1.73322260425e-05
7.5  17.5  15  m  1  1  1  v  -0.00058356880491  0.000597532369418  -0.000766642705832
12.5  2.5  0  m  1  1  1  v  0.000378792000571  -0.000124435848742  -0.000437095173503
12.5  2.5  5  m  1  1  1  v  -0.000332939293971  0.000508957940795  0.000285455833756
12.5  2.5  10  m  1  1  1  v  0.000211683240373  0.000260981382647  -0.000142686262579
12.5  2.5  15  m  1  1  1  v  -0.000283851598523  0.000261472702459  0.000135865375298
12.5  7.5  0  m  1  1  1  v  -0.000273901214448  -1.42396192333e-05  -0.000555866257072
12.5  7.5  5  m  1  1  1  v  -9.4698956512e-05  -0.000289096986148  -0.000103176134391
12.5  7.5  10  m  1  1  1  v  -0.000522098651928  0.000388941210149  7.83337657657e-05
12.5  7.5  15  m  1  1  1  v  -0.000157417439563  -7.09096517374e-05  0.000532131740528
12.5  12.5  0  m  1  1  1  v  0.000628327889843  -0.00019012005602  -0.000370050858524
12.5  12.5  5  m  1  1  1  v  3.76071883262e-05  0.000930078859443  0.000333999721266
12.5  12.5  10  m  1  1  1  v  0.000390430098282  -0.000622384686017  -0.000138587483307
12.5  12.5  15  m  1  1  1  v  0.000199044914482  -2.19418589438e-05  -0.000486847550008
12.5  17.5  0  m  1  1  1  v  0.000828847902358  0.000216750631397  0.000607602879513
12.5  17.5  5  m  1  1  1  v  0.000457943164241  -0.000176393046513  0.000217395649178
12.5  17.5  10  m  1  1  1  v  -8.3662737551e-05  -0.000556211957685  0.000296973409605
12.5  17.5  15  m  1  1  1  v  -0.000245758322969  -0.00010830937138  0.000302092790128
17.5  2.5  0  m  1  1  1  v  -0.000239753968202  0.000403483376439  1.8310334874e-05
17.5  2.5  5  m  1  1  1  v  -0.000143721486863  -0.000254954270437  0.000290435801089
17.5  2.5  10  m  1  1  1  v  0.000102847876542  0.000408358689148  -0.00027568685571
17.5  2.5  15  m  1  1  1  v  -0.000424599962607  -0.000445746825818  0.000154986313199
17.5  7.5  0  m  1  1  1  v  -0.000311744199489  0.000130445969808  0.000321266514837
17.5  7.5  5  m  1  1  1  v  0.000215775042602  -0.000462846474746  -0.000171691550643
17.5  7.5  10  m  1  1  1  v  -0.000716939960644  -0.000228725621474  -0.000511757914297
17.5  7.5  15  m  1  1  1  v  -0.000256754516296  5.36616296696e-05  -0.000458461373098
17.5  12.5  0  m  1  1  1  v  -3.31934660804e-05  -9.97119587226e-05  -0.000563274191666
17.5  12.5  5  m  1  1  1  v  -0.000584957420878  -0.000314437668411  0.000382384515693
17.5  12.5  10  m  1  1  1  v  -0.000517665663823  0.000306239548858  2.20180529166e-05
17.5  12.5  15  m  1  1  1  v  0.000253173243302  0.000227450765702  0.000344423500825
17.5  17.5  0  m  1  1  1  v  0.000369227130513  -0.000383052570525  2.74279230889e-05
17.5  17.5  5  m  1  1  1  v  0.000399631989704  0.000479745121498  0.000548822620787
17.5  17.5  10  m  1  1  1  v  0.000124772432841  -0.00090369732576  -0.00033375685418
17.5  17.5  15  m  1  1  1  v  0.000459798678521  0.000389747589369  0.000207511366339
2.5  0  2.5  m  1  1  1  v  -0.00020144292948  7.76967088718e-05  -0.000451803631172
2.5  0  7.5  m  1  1  1  v  0.00012035033912  0.000658272675967  0.000203756472493
2.5  0  12.5  m  1  1  1  v  -0.000370180577822  -0.000385506166599  0.000131073003488
2.5  0  17.5  m  1  1  1  v  0.000290899618478  -0.000372401657401  -0.000206289414643
2.5  5  2.5  m  1  1  1  v  8.30302333509e-05  0.000303482044654  0.000383001611847
2.5  5  7.5  m  1  1  1  v  -0.000531097080445  5.82577388225e-05  -5.33703741529e-05
2.5  5  12.5  m  1  1  1  v  -0.000497983600769  1.6064673428e-05  0.000336369565838
2.5  5  17.5  m  1  1  1  v  0.000141880244823  -0.000282830953893  0.000559746880811
2.5  10  2.5  m  1  1  1  v  0.000351231125706  6.25201022155e-05  2.34840412399e-05
2.5  10  7.5  m  1  1  1  v  2.42539669378e-05  4.34861923218e-05  0.000254213665396
2.5  10  12.5  m  1  1  1  v  -0.000162626495671  0.00110872257006  0.000442363807745
2.5  10  17.5  m  1  1  1  v  9.17770935123e-05  0.00018182057615  -8.38345405445e-05
2.5  15  2.5  m  1  1  1  v  0.000320605348966  9.8795375068e-05  0.000236687510298
2.5  15  7.5  m  1  1  1  v  0.000428368990779  0.000244135742552  0.000233825993268
2.5  15  12.5  m  1  1  1  v  -0.000592082292963  0.000251836790479  -5.63832018014e-05
2.5  15  17.5  m  1  1  1  v  -0.000511054068709  0.000127326406659  0.00012783520472
7.5  0  2.5  m  1  1  1  v  0.00025850445819  0.000145665134681  -0.000523669884005
7.5  0  7.5  m  1  1  1  v  0.00060462518598  0.000429489409415  0.000612803978336
7.5  0  12.5  m  1  1  1  v  1.30503524749e-06  -0.000418903831425  1.32905361175e-05
7.5  0  17.5  m  1  1  1  v  -0.000214684484195  0.000709979051866  4.78321291727e-05
7.5  5  2.5  m  1  1  1  v  0.000423035161019  3.27175697431e-05  -0.000386812789722
7.5  5  7.5  m  1  1  1  v  -5.56595497636e-05  1.68822879521e-05  -0.000250041065758
7.5  5  12.5  m  1  1  1  v  0.000391701866401  -0.000149058213535  0.000756683849642
7.5  5  17.5  m  1  1  1  v  -0.000314375027844  -0.000387093669971  -0.000112587175707
7.5  10  2.5  m  1  1  1  v  -0.000588720974111  -0.000188565903832  9.68916033745e-05
7.5  10  7.5  m  1  1  1  v  0.000430240917867  0.000800649661252  -0.000523578084978
7.5  10  12.5  m  1  1  1  v  -4.90164832167e-05  7.99851056451e-05  0.000611825272516
7.5  10  17.5  m  1  1  1  v  0.000387482857436  -0.000240889270592  -0.000270220941795
7.5  15  2.5  m  1  1  1  v  2.93329197102e-05  0.000256089141656  0.000606382055526
7.5  15  7.5  m  1  1  1  v  -0.000142939804489  -6.25764361256e-05  0.000407440171534
7.5  15  12.5  m  1  1  1  v  7.71816235234e-05  9.38405898516e-05  -0.000760980325161
7.5  15  17.5  m  1  1  1  v  0.000118743147203  -0.000544217046507  -5.96870554354e-05
12.5  0  2.5  m  1  1  1  v  0.000189628396967  -6.21221412776e-06  -0.000504457414009
12.5  0  7.5  m  1  1  1  v  -0.00011079548323  0.000281950613683  0.000241883924502
12.5  0  12.5  m  1  1  1  v  0.000106225060898  -7.95945933608e-05  -0.000633969863213
12.5  0  17.5  m  1  1  1  v  -0.000405069149722  0.000749731877046  0.00064600573841
12.5  5  2.5  m  1  1  1  v  0.000127158917508  -0.000426146555795  -0.000143933450329
12.5  5  7.5  m  1  1  1  v  -0.000862586676516  9.93893399756e-05  0.000222626584941
12.5  5  12.5  m  1  1  1  v  -0.000526219879851  0.000188391357554  -0.000201404353369
12.5  5  17.5  m  1  1  1  v  -0.00048897408001  0.000651720582539  0.00038974714952
12.5  10  2.5  m  1  1  1  v  0.000570755312008  0.000347984432277  -0.000263434049845
12.5  10  7.5  m  1  1  1  v  -1.16418673528e-05  0.000152194541599  -0.000584467302317
12.5  10  12.5  m  1  1  1  v  0.000145311972499  0.00052176523259  -0.000482092605144
12.5  10  17.5  m  1  1  1  v  -0.000120161306554  -1.06846829241e-05  0.000518140668306
12.5  15  2.5  m  1  1  1  v  -1.03847477188e-05  0.000130428516452  -0.000309801502629
12.5  15  7.5  m  1  1  1  v  -0.000222871650533  0.000330381974071  -0.000127045547305
12.5  15  12.5  m  1  1  1  v  0.000109826853539  0.000108038865124  -8.43426231366e-05
12.5  15  17.5  m  1  1  1  v  -0.000693986856631  0.000366591672986  0.000104357455076
17.5  0  2.5  m  1  1  1  v  2.6368999069e-05  0.000151782611113  -0.000327171586076
17.5  0  7.5  m  1  1  1  v  -0.000260823107774  -0.000173999051955  -0.000180810883954
17.5  0  12.5  m  1  1  1  v  0.000115316876467  -0.00040230276359  -0.000182048796492
17.5  0  17.5  m  1  1  1  v  -0.00016759682733  -0.000187569962643  0.000759810159511
17.5  5  2.5  m  1  1  1  v  1.90973050824e-05  -0.000232806028975  -0.000930690558705
17.5  5  7.5  m  1  1  1  v  -7.66341461503e-05  -0.00018601802863  -0.000659460461598
17.5  5  12.5  m  1  1  1  v  -0.000112818049709  0.000119351730283  8.89383458161e-05
17.5  5  17.5  m  1  1  1  v  -0.000533014390517  -0.000168897097734  -4.16952564816e-05
17.5  10  2.5  m  1  1  1  v  0.000219499401601  0.000225719335682  -0.000213523535373
17.5  10  7.5  m  1  1  1  v  -3.58311336418e-05  -0.000390552029289  0.000202245978983
17.5  10  12.5  m  1  1  1  v  0.000399677425582  -0.000372947412085  0.000280016293657
17.5  10  17.5  m  1  1  1  v  6.53838552619e-05  -4.16559124908e-05  -0.000166115467845
17.5  15  2.5  m  1  1  1  v  0.000178670492524  0.000266897673655  0.000411687946139
17.5  15  7.5  m  1  1  1  v  0.000344994386421  0.000238727083879  -0.000120431494553
17.5  15  12.5  m  1  1  1  v  0.000333505763457  -0.000292137902435  0.0001726237718
17.5  15  17.5  m  1  1  1  v  -0.000234730000862  5.62913126399e-05  -0.000234800738079
0  2.5  2.5  m  1  1  1  v  -0.00019073705565  -0.000194482990299  3.15399727991e-05
0  2.5  7.5  m  1  1  1  v  -0.00027801993551  -6.70433352912e-05  -0.000632029409349
0  2.5  12.5  m  1  1  1  v  6.921836509e-05  -0.000426581683304  0.000919683417569
0  2.5  17.5  m  1  1  1  v  -0.000307246644594  0.000310819595416  0.000912958946143
0  7.5  2.5  m  1  1  1  v  0.000226867579714  -0.000315192904409  -0.000516485728808
0  7.5  7.5  m  1  1  1  v  0.000238028275559  2.16659885247e-05  -0.000143972055265
0  7.5  12.5  m  1  1  1  v  0.000160581533023  -6.14431674198e-05  -0.000548138797065
0  7.5  17.5  m  1  1  1  v  -4.91129100508e-06  -0.000295898924095  -0.000613933155254
0  12.5  2.5  m  1  1  1  v  0.000457364239419  0.000417488196285  -0.000166448741368
0  12.5  7.5  m  1  1  1  v  -0.000662162101698  0.000467099830489  -0.000389971352211
0  12.5  12.5  m  1  1  1  v  -0.000323675325998  0.000263730527417  -0.0004293621513
0  12.5  17.5  m  1  1  1  v  0.00026837766014  0.000405894779886  9.74965933673e-05
0  17.5  2.5  m  1  1  1  v  -0.000498558446548  0.000437391569025  1.86553084938e-05
0  17.5  7.5  m  1  1  1  v  0.000394140011759  -0.000304356223474  -0.000323517901294
0  17.5  12.5  m  1  1  1  v  -0.000338145262405  2.13503078777e-05  0.000308830807289
0  17.5  17.5  m  1  1  1  v  4.6744577921e-05  5.83056600995e-05  0.000469372081873
5  2.5  2.5  m  1  1  1  v  -0.000556571263374  -0.000446876715015  -8.83882024411e-05
5  2.5  7.5  m  1  1  1  v  -4.77684655833e-05  -0.000367101996946  0.000365431677942
5  2.5  12.5  m  1  1  1  v  0.000445348458768  2.28702513395e-05  -3.84208064518e-05
5  2.5  17.5  m  1  1  1  v  -0.000346038773528  -0.000497689463924  -4.22137545213e-05
5  7.5  2.5  m  1  1  1  v  -0.000145058131496  -4.93838854e-05  0.000544638709363
5  7.5  7.5  m  1  1  1  v  0.000248807990762  5.70672082339e-05  -5.66742455422e-05
5  7.5  12.5  m  1  1  1  v  -0.000101554574824  0.000606972061251  0.000178527423365
5  7.5  17.5  m  1  1  1  v  0.000537045127632  6.92538290128e-05  8.48615180853e-05
5  12.5  2.5  m  1  1  1  v  -0.000102189220452  5.16286474183e-05  -0.00030900125239
5  12.5  7.5  m  1  1  1  v  -0.00038603866516  0.000360559498857  -0.000330453939983
5  12.5  12.5  m  1  1  1  v  3.42098919033e-05  -0.000112334353543  -0.000405597838749
5  12.5  17.5  m  1  1  1  v  0.000428200934409  -0.000541525398723  -0.000849555203723
5  17.5  2.5  m  1  1  1  v  0.000376649964109  -0.000471352795948  8.41326950371e-05
5  17.5  7.5  m  1  1  1  v  -0.000411897447397  -0.000249733504423  -9.13832980732e-05
5  17.5  12.5  m  1  1  1  v  -0.000369997308812  0.000154233686637  0.000128694741183
5  17.5  17.5  m  1  1  1  v  -0.000550744884656  0.000763453368811  0.00011376597128
10  2.5  2.5  m  1  1  1  v  -0.000101901470465  0.000143804111637  0.000102169963415
10  2.5  7.5  m  1  1  1  v  -0.000211363429283  -0.000195415030834  -8.57666387457e-06
10  2.5  12.5  m  1  1  1  v  -0.000216187404309  -0.000476293616376  -7.76033792814e-05
10  2.5  17.5  m  1  1  1  v  -0.000493260859714  -0.000649314878328  -0.000243550285601
10  7.5  2.5  m  1  1  1  v  -0.00043738882038  -2.83543802753e-05  0.000368176775941
10  7.5  7.5  m  1  1  1  v  0.000201773521536  5.20191299638e-05  -0.000498445822609
10  7.5  12.5  m  1  1  1  v  -0.000662662433917  0.000541202344967  0.000339645057286
10  7.5  17.5  m  1  1  1  v  0.000467833293098  0.000373098869938  -0.000872028785937
10  12.5  2.5  m  1  1  1  v  0.000412645613242  0.000121969470341  0.000442921092535
10  12.5  7.5  m  1  1  1  v  -0.000245163885034  -7.53515851037e-05  -0.000311250640522
10  12.5  12.5  m  1  1  1  v  0.000403100631681  -0.000152775954953  -5.75618754424e-06
10  12.5  17.5  m  1  1  1  v  -2.9180857346e-05  0.000115133052465  8.30778426852e-05
10  17.5  2.5  m  1  1  1  v  0.000467308278427  0.000335081035266  9.57851874484e-05
10  17.5  7.5  m  1  1  1  v  0.000811930384569  4.19684471312e-05  0.000984708813052
10  17.5  12.5  m  1  1  1  v  0.000484977681788  0.00021830490232  -0.000255111925951
10  17.5  17.5  m  1  1  1  v  0.000172905015777  0.000270403302081  0.000161686144385
15  2.5  2.5  m  1  1  1  v  -0.000423366888666  0.000210658828121  -0.000131483259054
15  2.5  7.5  m  1  1  1  v  -0.000290991069353  -4.53033433747e-05  -0.000660420610366
15  2.5  12.5  m  1  1  1  v  -0.000379089480533  -0.00022403914396  4.13239252303e-05
15  2.5  17.5  m  1  1  1  v  0.000114587739608  -0.000552014846168  -1.25777667467e-06
15  7.5  2.5  m  1  1  1  v  -0.00032567020178  -0.000149075722229  0.000292959471936
15  7.5  7.5  m  1  1  1  v  0.000684276638878  0.000186308878506  -0.000140332873044
15  7.5  12.5  m  1  1  1  v  0.000494112644917  0.000412968600425  0.000146093600747
15  7.5  17.5  m  1  1  1  v  0.000105988122873  0.00050613135849  0.000628039236954
15  12.5  2.5  m  1  1  1  v  0.000220522085421  0.000288684030707  -9.09017817074e-05
15  12.5  7.5  m  1  1  1  v  -0.000194283033517  -0.000390891109158  -0.000191029123285
15  12.5  12.5  m  1  1  1  v  -0.000404941217492  -0.000753100772939  8.70533839612e-05
15  12.5  17.5  m  1  1  1  v  -0.000322854784007  -0.000129711390427  0.00028405831127
15  17.5  2.5  m  1  1  1  v  4.00352034354e-05  -0.000304572448993  0.000261847666255
15  17.5  7.5  m  1  1  1  v  0.000180419277545  -0.000454522247491  -0.00062852056178
15  17.5  12.5  m  1  1  1  v  -0.00030308678393  -0.000542513049316  4.22590591804e-05
15  17.5  17.5  m  1  1  1  v  -0.000295161623708  0.000340322438402  -7.07908799867e-05
