ATOMIC_SPECIES
H 1.00794 H.LDA.UPF

NUMERICAL_ORBITAL
H_lda_8.0au_100Ry_2s1p.orb

LATTICE_CONSTANT
15

LATTICE_VECTORS
1 0 0 #latvec1
0 1 0 #latvec2
0 0 1 #latvec3

ATOMIC_POSITIONS
Cartesian

H #label
0 #magnetism
2 #number of atoms
0.502095122795  0.474071446432  0.509122850526  m  1  1  1  v  -1.58317459417e-05  0.000196314331857  0.000681467807833
0.497904877205  0.525928553568  0.592277149473  m  1  1  1  v  1.58317459417e-05  -0.000196314331857  -0.000681467807833
