INPUT_PARAMETERS
#Parameters	(General)
suffix          autotest
pseudo_dir	../../PP_ORB
	
nbands			8
calculation     md
read_file_dir   ./

#Parameters (Accuracy)
ecutwfc			20
scf_nmax			20

basis_type		pw
md_nstep           5

cal_stress          1
stress_thr      1e-6
cal_force           1
force_thr_ev    1.0e-3

ks_solver       cg
mixing_type     broyden
mixing_beta     0.7

md_tchain        4
md_type          nvt
md_tfreq         0.1
md_tfirst        10
md_dt            1
md_restart       1
init_vel         1
