ATOMIC_SPECIES
Si 1 Si_ONCV_PBE-1.0.upf upf201

LATTICE_CONSTANT
10.2

LATTICE_VECTORS
    0.5000000000     0.5000000000     0.0000000000 #latvec1
    0.5000000000     0.0000000000     0.5000000000 #latvec2
    0.0000000000     0.5000000000     0.5000000000 #latvec3

ATOMIC_POSITIONS
Cartesian

Si #label
0 #magnetism
2 #number of atoms
    0.9961377061     0.5017059282     0.5004642243 m  1  1  1 v    -0.0005823336     0.0003037059     0.0000737542
    0.2448622939     0.2532940718     0.2505357757 m  1  1  1 v     0.0005823336    -0.0003037059    -0.0000737542
