ATOMIC_SPECIES
Si 1 Si_ONCV_PBE-1.0.upf

LATTICE_CONSTANT
10.2

LATTICE_VECTORS
0.5 0.5 0 #latvec1
0.5 0 0.5 #latvec2
0 0.5 0.5 #latvec3

ATOMIC_POSITIONS
Cartesian

Si #label
0 #magnetism
2 #number of atoms
0  0  0  m  1  1  1  v  -0.00016026383234  1.88587389656e-05  4.31519285331e-06
0.241  0.255  0.250999999999  m  1  1  1  v  0.00016026383234  -1.88587389656e-05  -4.31519285331e-06
