INPUT_PARAMETERS
#Parameters (1.General)
suffix                  abacus
calculation             scf
nbands                  6
symmetry                1

#Parameters (2.Iteration)
ecutwfc                 50
scf_thr                     1e-8
scf_nmax                   50

#Parameters (3.Basis)
basis_type              pw

#Parameters (4.Smearing)
smearing_method                gaussian
smearing_sigma                   0.02

#Parameters (5.Mixing)
mixing_type             broyden
mixing_beta             0.4

#Parameters (6.Deepks)
cal_force			1
cal_stress 1
