INPUT_PARAMETERS
#Parameters (1.General)
suffix			autotest
calculation     scf
cal_stress      1
cal_force       1

nbands			4
pseudo_dir   ../../PP_ORB

#Parameters (2.Iteration)
ecutwfc			40
scf_thr			1e-9


#Parameters (3.Basis)
basis_type		pw

#Parameters (4.Smearing)
smearing_method		fd
smearing_sigma		0.1

#Parameters (5.Mixing)
mixing_type		broyden
mixing_beta		0.7
