INPUT_PARAMETERS
#Parameters (1.General)
suffix			autotest
calculation     scf

nbands			24
symmetry		1
pseudo_dir	../../PP_ORB
orbital_dir	../../PP_ORB
gamma_only      1

#Parameters (2.Iteration)
ecutwfc			20
scf_thr				1e-6
scf_nmax			100

nspin           2
#Parameters (3.Basis)
basis_type		lcao

#Parameters (4.Smearing)
smearing_method		gauss
smearing_sigma			0.002

#Parameters (5.Mixing)
mixing_type		broyden
mixing_beta		0.4
mixing_ndim     15
mixing_gg0      1.5

ocp                           1
ocp_set                       32*1 16*0
