INPUT_PARAMETERS
suffix    autotest

#nbands   40

calculation   scf
ecutwfc       26
scf_thr           1.0e-8
scf_nmax         200
out_mul    1

#init_chg    file
#out_dos      1
#dos_sigma    0.05
#out_band     1
noncolin	1
smearing_method    gaussian
smearing_sigma       0.07

mixing_type    broyden 
mixing_beta    0.5
mixing_ndim 10

ks_solver     scalapack_gvx
basis_type    lcao
symmetry      1
pseudo_dir	../../PP_ORB
orbital_dir	../../PP_ORB
