INPUT_PARAMETERS
#Parameters (1.General)
suffix                  autotest
calculation             scf
pseudo_dir              ../../PP_ORB
orbital_dir              ../../PP_ORB
ntype                   2
nbands                  6
symmetry                0

#Parameters (2.Iteration)
ecutwfc                 20
scf_thr                     1e-8
scf_nmax                   50

#Parameters (3.Basis)
basis_type              pw
gamma_only              1

#Parameters (4.Smearing)
smearing_method                gaussian
smearing_sigma                   0.02

#Parameters (5.Mixing)
mixing_type             pulay
mixing_beta             0.4

#Parameters (6.File)
deepks_out_labels          1 
deepks_descriptor_lmax			2
