INPUT_PARAMETERS
#Parameters	(General)
suffix      	autotest
	
nbands			8
calculation 	md

#Parameters (Accuracy)
ecutwfc			20
scf_nmax			50
scf_thr             1.0e-8

basis_type		pw
md_nstep           3

cal_stress          1
stress_thr      1e-6
cal_force           1
force_thr_ev    1.0e-3

mixing_type     broyden
mixing_beta     0.7

chg_extrap   second-order

md_tfirst       10
md_tfreq        0.1
init_vel        1
pseudo_dir	../../PP_ORB
