INPUT_PARAMETERS
#Parameters (General)
kpoint_file             KLINES
pseudo_dir              ../../../tests/PP_ORB
calculation             nscf
ntype                   1
symmetry                0
#Parameters (Methos)
ecutwfc                 50
basis_type              pw
pw_diag_thr		1e-10
pw_diag_nmax		100
#Parameters (Accuracy)
smearing_method         gauss
smearing_sigma          0.01
#Parameters (File)
init_chg                file
out_band                1
