#Al BCC
ATOMIC_SPECIES
Al 26.982 Al.PD04.PBE.UPF

LATTICE_CONSTANT
1.889716

LATTICE_VECTORS
    3.22050     0.00000     0.00000
    0.00000     3.22050     0.00000
    0.00000     0.00000     3.22050

ATOMIC_POSITIONS
Direct

Al
0.0
2
  0.0000000   0.0000000   0.0000000 1 1 1
  0.5000000   0.5000000   0.5000000 1 1 1

