INPUT_PARAMETERS
#Parameters (1.General)
suffix			autotest
calculation     scf

nbands			6
symmetry		1
pseudo_dir	../../PP_ORB

#Parameters (2.Iteration)
ecutwfc			20
scf_thr				1e-9
scf_nmax			100

#Parameters (3.Basis)
basis_type		pw

out_wfc_pw 1
