INPUT_PARAMETERS

#Parameters	(General)
calculation     sto-scf
pseudo_dir              ../../../tests/PP_ORB
ntype			1	
nbands			4
nbands_sto      64
nche_sto        100
method_sto      1

#Parameters (Accuracy)
ecutwfc			50
scf_nmax		20
symmetry		1

#Parameters (Smearing)
smearing_method     fd #We can only use fd in "sto-scf/md" calculation
smearing_sigma      0.6

