INPUT_PARAMETERS
#Parameters	(General)
pseudo_dir		./
ntype			2	
#Parameters (Accuracy)
ecutwfc			50
scf_nmax			20
smearing_sigma		  0.002

basis_type		pw

latname	hexagonal
