INPUT_PARAMETERS
suffix autotest
calculation scf
ntype 2
ecutwfc 100.000000
dr2 5.000000e-07
niter 35
basis_type lcao
dft_functional pbe
gamma_only 1
mixing_type pulay
mixing_beta 0.400000
smearing gaussian
sigma 0.020000
force 0
stress 0
deepks_scf 1
deepks_model model.ptg
deepks_out_labels 1
deepks_bandgap 1
