INPUT_PARAMETERS
#Parameters	(General)
suffix			test
pseudo_dir          ./
ntype               2
nbands              35
pseudo_type         upf201
gamma_only          0


calculation         scf
symmetry             0

nstep               1
out_level           ie
move_method           cg
out_charge          1
#out_band            1
#start_charge        file

smearing            gaussian
sigma             0.02
#Parameters (3.PW)
ecutwfc             50
dr2                 1e-8
niter               100
ethr                0.00001
#stress              1
#noncolin             1
lspinorb             1
nspin		     4

#Parameters (LCAO)
basis_type pw
charge_extrap       second-order
out_dm             0


mixing_beta         0.4
mixing_gg0          1.5


