ATOMIC_SPECIES
H   1.008         H_ONCV_PBE-1.0.upf

NUMERICAL_ORBITAL
1_H_gga_100Ry_7au_2s1p.orb

LATTICE_CONSTANT
1.8897261258369282 

LATTICE_VECTORS
10.000100000      0.0000000000      0.0000000000      
0.0000000000      10.006500000      0.0000000000      
0.0000000000      0.0000000000      10.740000000      

ATOMIC_POSITIONS
Direct

H
0.0000000000
2
0.4999950000 0.4996750000 0.5344510000 1 1 1 m 0 0 0
0.5000050000 0.5003250000 0.4655490000 1 1 1 m 0 0 0

