#INPUT file for applying D2 correction
#where I chose to manually set the C6 parameter
#in file c6.txt
#in lcao basis

INPUT_PARAMETERS
#Parameters	(General)
pseudo_dir		../../../tests/PP_ORB
orbital_dir			../../../tests/PP_ORB
ntype			1	
#Parameters (Accuracy)
ecutwfc			50
scf_nmax		100
scf_thr                 1e-6
basis_type		lcao
vdw_method 		d2
vdw_C6_file		c6.txt
