INPUT_PARAMETERS
#Parameters (1.General)
suffix			autotest
calculation     scf
esolver_type    sdft
method_sto      1

symmetry		0
pseudo_dir	../../PP_ORB

kpar            2
bndpar          1

nbands			3
nbands_sto		all

nche_sto		120
seed_sto        20000
cal_force       1
cal_stress      1

#Parameters (2.Iteration)
ecutwfc			20
scf_thr			1e-6
scf_nmax		20


#Parameters (3.Basis)
basis_type		pw

#Parameters (4.Smearing)
smearing_method		fd
smearing_sigma		0.6

#Parameters (5.Mixing)
mixing_type		plain
mixing_beta		0.7
