INPUT_PARAMETERS
#Parameters (1.General)
suffix			autotest
calculation     nscf
ntype			1
nbands			6
symmetry		0
pseudo_dir      ../tools/PP_ORB/
read_file_dir   ./

#Parameters (2.Iteration)
ecutwfc			20
dr2				1e-8
niter			100

#out_charge      1
start_charge        file
out_dos            1
ethr                0.00001

#Parameters (3.Basis)
basis_type		pw

#Parameters (4.Smearing)
smearing		gauss
sigma			0.002

#Parameters (5.Mixing)
mixing_type		plain
mixing_beta		0.7

