INPUT_PARAMETERS
#Parameters (1.General)
suffix		    test 

nbands              8
pseudo_type         upf

#Parameters (2.Methods)
calculation         relax

#Parameters (3.PW)
ecutwfc             50
scf_thr                 1e-8
scf_nmax		    100

#Parameters (5.LCAO)
basis_type          pw
#ks_solver           hpseps
gamma_only          0

relax_nmax               50
force_thr_ev        0.001

#Parameters (6.Smearing) 
smearing_method            gaussian
smearing_sigma               0.02

cal_stress              1
#cell_factor         10
stress_thr          1e-6
