INPUT_PARAMETERS
#Parameters	(General)
calculation     scf
esolver_type    sdft
pseudo_dir              ../../../tests/PP_ORB
nbands			4
nbands_sto      64
nche_sto        100
method_sto      1
#Parameters (Accuracy)
ecutwfc			50
scf_nmax		20
symmetry		1
#Parameters (Smearing)
smearing_method     fd
smearing_sigma      0.6
