ATOMIC_SPECIES
Al 26.9815 al.lda.lps blps

LATTICE_CONSTANT
7.65176503799018

LATTICE_VECTORS
1.000000000000    0.000000000000    0.000000000000    
0.000000000000    1.000000000000    0.000000000000    
0.000000000000    0.000000000000    1.000000000000    

ATOMIC_POSITIONS
Direct

Al
0
4
	0.000000000000	0.000000000000	0.000000000000 1 1 1
	0.000000000000  0.500000000000  0.500000000000 1 1 1
	0.500000000000  0.000000000000  0.500000000000 1 1 1
	0.500000000000  0.500000000000  0.000000000000 1 1 1
