ATOMIC_SPECIES
Si 28 Si.pz-vbc.UPF

LATTICE_CONSTANT
8

LATTICE_VECTORS
1 0 0 #latvec1
0 1 0 #latvec2
0 0 1 #latvec3

ATOMIC_POSITIONS
Cartesian

Si #label
0 #magnetism
2 #number of atoms
0  0  0  m  1  1  1  v  3.43250824302e-06  7.09734042658e-06  2.94705948907e-05
0.5  0.5  0.5  m  1  1  1  v  -3.43250824302e-06  -7.09734042658e-06  -2.94705948907e-05
