INPUT_PARAMETERS
#Parameters (1.General)
suffix			autotest
ntype			1
symmetry		0
gamma_only      0
nspin			1

#Parameters (2.Iteration)
ecutwfc			20
scf_thr			1E-5
scf_nmax		100

calculation		scf

#Parameters (3.Basis)
basis_type		lcao
ks_solver       genelpa

#Parameters (4.Smearing)
smearing_method		gauss
smearing_sigma		0.002

#Parameters (5.Mixing)
mixing_type		pulay

#Parameters (7.Hybrid)
dft_functional				hf
exx_real_number				1
exx_pca_threshold			1E-4
exx_c_threshold 			1E-4
exx_v_threshold 			1
exx_dm_threshold 			1E-4
exx_cauchy_threshold		1E-6
exx_ccp_rmesh_times			3
exx_separate_loop			1
exx_hybrid_step				3

pseudo_dir	../../PP_ORB
orbital_dir	../../PP_ORB
