INPUT_PARAMETERS
ntype                         2
ecutwfc                       20
dr2                           1e-06
niter                         400
basis_type                    lcao
ks_solver                     genelpa
smearing                      gaussian
nstep                         1
sigma                         0.02
mixing_type                   pulay
mixing_beta                   0.4
vdw_method                    d2
fixed_axes                    c
force_thr_ev                  0.005
stress_thr                    0.1
suffix                        autotest
calculation                   cell-relax
force                         1
stress                        1
