INPUT_PARAMETERS
suffix    autotest
ntype    3
nbands    40

calculation    scf
ecutwfc    20
scf_thr    1.0e-4
scf_nmax    2
out_chg    0

#init_chg    file
#out_dos    1
#dos_sigma    0.05
#out_band    1

smearing_method    gaussian
smearing_sigma    0.07

#cal_force     1
#force_thr_ev    0.01
#relax_method    cg
#relax_bfgs_init    0.5

mixing_type    pulay
mixing_beta    0.4
#mixing_gg0    1.5

ks_solver    genelpa
basis_type    lcao
gamma_only    1
symmetry    0
nspin    2

#Parameter DFT+U
dft_plus_u    1
orbital_corr    2 2 -1
hubbard_u    5.0 5.0 0.0
hund_j    0.0 0.0 0.0
