ATOMIC_SPECIES
Fe1 1.000 ../tools/PP_ORB/Fe_ONCV_PBE-1.0.upf
Fe2 1.000 ../tools/PP_ORB/Fe_ONCV_PBE-1.0.upf
O  1.000 ../tools/PP_ORB/O_ONCV_PBE-1.0.upf

NUMERICAL_ORBITAL
../tools/PP_ORB/Fe_gga_9au_100Ry_4s2p2d1f.orb
../tools/PP_ORB/Fe_gga_9au_100Ry_4s2p2d1f.orb
../tools/PP_ORB/O_gga_7au_100Ry_2s2p1d.orb

LATTICE_CONSTANT
8.190

LATTICE_VECTORS
 1.00    0.50     0.50
 0.50    1.00     0.50
 0.50    0.50     1.00
ATOMIC_POSITIONS
Direct

Fe1
1.0
1
0.00            0.00            0.00     m       1        1       1

Fe2
-1.0
1
0.50            0.50            0.50     m       1        1       1

O
0.0
2
0.25            0.25            0.25     m       1        1       1
0.75            0.75            0.75     m       1        1       1
