ATOMIC_SPECIES
N 1 N.LDA.UPF

LATTICE_CONSTANT
20

LATTICE_VECTORS
1 0 0 #latvec1
0 1 0 #latvec2
0 0 1 #latvec3

ATOMIC_POSITIONS
Direct

N #label
0 #magnetism
2 #number of atoms
0 0 0 0 0 0
0 0 0.141729515834 0 0 0
