INPUT_PARAMETERS
#Parameters	(General)
suffix      	autotest
ntype			1	
nbands			8
calculation 	relax

#Parameters (Accuracy)
ecutwfc			20
niter			50
dr2             1.0e-8

basis_type		pw
nstep           2

stress          1
stress_thr      1e-6
force           1
force_thr_ev    1.0e-3

ks_solver       cg
mixing_type     pulay
mixing_beta     0.7
mixing_gg0      1.5
