INPUT_PARAMETERS
#Parameters	(General)
suffix      	autotest
	
nbands			8
calculation 	relax

#Parameters (Accuracy)
ecutwfc			20
scf_nmax			50
scf_thr             1.0e-8

basis_type		pw
relax_nmax           2

cal_stress          1
stress_thr      1e-6
cal_force           1
force_thr_ev    1.0e-3

ks_solver       cg
mixing_type     broyden
mixing_beta     0.7
mixing_gg0      1.5
pseudo_dir	../../PP_ORB

relax_new 0
