INPUT_PARAMETERS
suffix autotest
calculation scf
ntype 2
ecutwfc 50.000000
dr2 5.000000e-07
niter 50
basis_type lcao
dft_functional lda
gamma_only 1
mixing_type pulay
mixing_beta 0.400000
nbands 18
smearing gaussian
sigma 0.020000
force 1
stress 0
deepks_out_labels 0
deepks_descriptor_lmax 2
deepks_scf 1
deepks_model model.ptg
