INPUT_PARAMETERS
suffix autotest
pseudo_dir ../../PP_ORB
orbital_dir ../../PP_ORB
calculation scf

ecutwfc 50.000000
scf_thr 5.000000e-07
scf_nmax 50
basis_type lcao
dft_functional lda
gamma_only 1
mixing_type broyden
mixing_beta 0.400000
mixing_gg0  0.0
nbands 18
smearing_method gaussian
smearing_sigma 0.020000
cal_force 1
cal_stress 0
deepks_out_labels 0
deepks_scf 1
deepks_model model.ptg
