ATOMIC_SPECIES
Al 26.9815385 pp_orb/Al.PD04.PBE.UPF

NUMERICAL_ORBITAL
pp_orb/Al_gga_10au_100Ry_3s3p2d.orb

LATTICE_CONSTANT
1.889726125 

LATTICE_VECTORS
        4.0392185522        0.0000000000        0.0000000000
        0.0000000000        4.0392185522        0.0000000000
        0.0000000000        0.0000000000        4.0392185522

ATOMIC_POSITIONS
Direct

Al
0.0000000000
4
0.0000000000 0.0000000000 0.0000000000 1 1 1 
0.0000000000 0.5000000000 0.5000000000 1 1 1 
0.5000000000 0.0000000000 0.5000000000 1 1 1 
0.5000000000 0.5000000000 0.0000000000 1 1 1 

