ATOMIC_SPECIES
Li 6.941 Li-s.PD04.PBE.UPF
Rh 102.906 Rh-sp.PD04.PBE.UPF

LATTICE_CONSTANT
1.889716

LATTICE_VECTORS
    2.69787     0.00000     0.00000
    0.00000     4.68447    -0.00000
   -1.34893    -2.34223     4.34561

ATOMIC_POSITIONS
Cartesian

Li
0.0
1
  0.0000000   0.0715085  -0.0000000 1 1 1

Rh
0.0
3
  1.3489347   2.3677761  -0.0000000 1 1 1
  1.3489348   0.8953956   2.2217880 1 1 1
 -0.0000000   3.2376300   2.1238178 1 1 1

