INPUT_PARAMETERS
#Parameters	(General)
pseudo_dir		./
ntype			1	
nbands			8
#Parameters (Accuracy)
ecutwfc			50
niter			20

basis_type		lcao
gamma_only		1

smearing		gauss
sigma			0.01

calculation		relax
nstep			50
force_thr_ev		1.0e-3
