INPUT_PARAMETERS
#Parameters	(General)
pseudo_dir		./
ntype			1	
nbands			8
#Parameters (Accuracy)
ecutwfc			50
scf_nmax			20

basis_type		lcao
gamma_only		1

smearing_method		gauss
smearing_sigma			0.01

calculation		relax
relax_nstep			50
force_thr_ev		1.0e-3
