ATOMIC_SPECIES
Pt 195.078 Pt_ONCV_PBE-1.0.upf

LATTICE_CONSTANT
1.889716

LATTICE_VECTORS
   20.00000     0.00000     0.00000
    0.00000     5.54844     0.00000
    0.00000    -2.77422     4.80509

ATOMIC_POSITIONS
Cartesian

Pt
0.0
12
  5.0000000   0.0000000   0.0000000 1 1 1
  5.0000000   2.7742217   0.0000000 1 1 1
  5.0000000  -1.3871108   2.4025464 1 1 1
  5.0000000   1.3871110   2.4025461 1 1 1
  7.2651424   2.7742215   1.6016975 1 1 1
  7.2651424   0.0000000   1.6016975 1 1 1
  7.2651424   1.3871107   4.0042440 1 1 1
  7.2651424  -1.3871108   4.0042440 1 1 1
  9.5302848   0.0000000   3.2033951 1 1 1
  9.5302848   2.7742217   3.2033951 1 1 1
  9.5302848   1.3871108   0.8008486 1 1 1
  9.5302848   4.1613325   0.8008486 1 1 1

