INPUT_PARAMETERS
#Parameters (1.General)
suffix			autotest
calculation     scf

nbands			3
symmetry		1
pseudo_dir	../../PP_ORB
pseudo_rcut     10
out_element_info    1

#Parameters (2.Iteration)
ecutwfc			20
scf_thr				1e-6
scf_nmax			100


#Parameters (3.Basis)
basis_type		pw

#Parameters (4.Smearing)
smearing_method		gauss
smearing_sigma			0.002
dft_functional	pbe
#Parameters (5.Mixing)
mixing_type		broyden
mixing_beta		0.7
