ATOMIC_SPECIES
Cu 1.000 ./Cu.LDA.UPF

NUMERICAL_ORBITAL
./Cu_lda_7.0au_100Ry_2s2p2d

LATTICE_CONSTANT
6.91640 

LATTICE_VECTORS
0.50	0.50	0.00
0.50	0.00	0.50
0.00	0.50	0.50

ATOMIC_POSITIONS
Direct

Cu
0.0
1
0.00	0.00	0.00	1	1	1
