ATOMIC_SPECIES
Si 14 ../../PP_ORB/Si_ONCV_PBE-1.0.upf

LATTICE_CONSTANT
1

LATTICE_VECTORS
 10.2000000  10.2000000   0.0000000
 10.2000000   0.0000000  10.2000000
  0.0000000  10.2000000  10.2000000

ATOMIC_POSITIONS
Direct

Si
0.0
16
  0.0000000   0.0000000   0.0000000 1 1 1
  0.1250000   0.1250000   0.1250000 1 1 1
  0.0000000   0.0000000   0.5000000 1 1 1
  0.1250000   0.1250000   0.6250000 1 1 1
  0.0000000   0.5000000   0.0000000 1 1 1
  0.1250000   0.6250000   0.1250000 1 1 1
  0.0000000   0.5000000   0.5000000 1 1 1
  0.1250000   0.6250000   0.6250000 1 1 1
  0.5000000   0.0000000   0.0000000 1 1 1
  0.6250000   0.1250000   0.1250000 1 1 1
  0.5000000   0.0000000   0.5000000 1 1 1
  0.6250000   0.1250000   0.6250000 1 1 1
  0.5000000   0.5000000   0.0000000 1 1 1
  0.6250000   0.6250000   0.1250000 1 1 1
  0.5000000   0.5000000   0.5000000 1 1 1
  0.6250000   0.6250000   0.6250000 1 1 1

