INPUT_PARAMETERS
pseudo_dir      ../../../tests/PP_ORB
symmetry      1

calculation   scf
nspin         2
ecutwfc       50
scf_thr       1.0e-8
scf_nmax      50
out_chg       1

basis_type    pw
ks_solver     cg

smearing_method    gaussian
smearing_sigma       0.07

mixing_type    broyden 
mixing_beta    0.5

