ATOMIC_SPECIES
H 1.000 H_ONCV_PBE-1.0.upf
O 1.000 O_ONCV_PBE-1.0.upf

NUMERICAL_ORBITAL
H_gga_6au_60Ry_2s1p.orb
O_gga_6au_60Ry_2s2p1d.orb


LATTICE_CONSTANT
1.8897259886

LATTICE_VECTORS
10 0 0
0 10 0
0 0 10

ATOMIC_POSITIONS
Cartesian    # Cartesian(Unit is LATTICE_CONSTANT)

H
0.0
2
0.9793	0.0422	0		1 1 1
-0.2866	0.9373	0		1 1 1


O
0.0
1
0 0 0		1 1 1

