INPUT_PARAMETERS
#Parameters	(General)
suffix          autotest
pseudo_dir		./
ntype			1	
nbands			8
calculation     relax
#Parameters (Accuracy)
ecutwfc			20
niter			20

basis_type		lcao
nstep           2

stress          1
stress_thr      1e-6
force           1
force_thr_ev    1.0e-3

ks_solver       genelpa
mixing_type     pulay
mixing_beta     0.7
