ATOMIC_SPECIES
H 1.008 H_ONCV_PBE-1.0.upf

NUMERICAL_ORBITAL
H_gga_8au_60Ry_2s1p.orb

LATTICE_CONSTANT
1.889725989

LATTICE_VECTORS
30 0 0
0 30 0
0 0  30

ATOMIC_POSITIONS
Cartesian

H
0
2 
0 0 10.37 0 0 0
0 0 9.63 0 0 0