INPUT_PARAMETERS
# Created by Atomic Simulation Enviroment
calculation         cell-relax
pseudo_rcut         10.0
pseudo_mesh         1
ecutwfc             50
basis_type          lcao
ks_solver           genelpa
smearing_method     gaussian
smearing_sigma      0.01
mixing_type         broyden
mixing_beta         0.7
scf_nmax            100
scf_thr             1e-08
kspacing            0.04
relax_nmax          100
cal_force           1
force_thr           0.001
cal_stress          1
stress_thr          0.01
out_stru            1
