INPUT_PARAMETERS
suffix    autotest
ntype     1
#nbands   40

calculation   scf
nspin         2
ecutwfc       15
dr2           1.0e-8
niter         200
out_charge    0

#start_charge    file
#out_dos      1
#dos_sigma    0.05
#out_band     1
noncolin	1
smearing    gaussian
sigma       0.07

mixing_type    pulay 
mixing_beta    0.5
mixing_ndim 10

ks_solver     cg
basis_type    pw
symmetry      1
#newdm   1
