INPUT_PARAMETERS
#Parameters	(General)
pseudo_dir		./
ntype			1	
nbands			8
#Parameters (Accuracy)
ecutwfc			50
scf_nmax			20

basis_type		lcao
