INPUT_PARAMETERS
calculation scf
suffix autotest
pseudo_dir ../../PP_ORB
orbital_dir ../../PP_ORB

ecutwfc 60.000000
scf_thr 5.000000e-07
scf_nmax 35
basis_type lcao
dft_functional lda
gamma_only 0
mixing_type broyden
mixing_beta 0.400000
smearing_method gaussian
smearing_sigma 0.020000
cal_force 0
cal_stress 0
deepks_scf 1
deepks_out_labels 1
deepks_bandgap 1
deepks_model ./model.ptg
symmetry_prec 1e-5
