INPUT_PARAMETERS
#Parameters	(System)
suffix                  autotest
ntype			1
nbands			4
stru_file		STRU
kpoint_file		KPT
pseudo_dir	../../PP_ORB
orbital_dir		../tools/PP_ORB/
latname			sc
#Parameters (PW)
ecutwfc			25.0              # Rydberg
#Parameters (electronic)
basis_type		lcao 	
scf_thr			1e-10

calculation     	ienvelope 
read_file_dir		./
orbital_dir	../../PP_ORB
