INPUT_PARAMETERS
#Parameters	(General)
suffix	            autotest
pseudo_dir          ../tools/PP_ORB
ntype               2
#nbands              40
pseudo_type         upf201
gamma_only          0


calculation         scf
symmetry             1

nstep               1
out_level           ie

smearing            gaussian
sigma             0.02
#Parameters (3.PW)
ecutwfc             20
dr2                 1e-6
niter               100

#Parameters (LCAO)
basis_type          pw
ks_solver          cg 
charge_extrap       second-order
out_dm             0
ethr                0.00001

force                1
#test_force           1
stress               1
#test_stress          1

mixing_type         pulay
mixing_beta         0.4
mixing_gg0          1.5

