INPUT_PARAMETERS
pseudo_dir              ../../../tests/PP_ORB
orbital_dir                 ../../../tests/PP_ORB
ntype      				1
nbands     				5
nspin      				1
calculation				scf
basis_type 				lcao
ks_solver  				genelpa
ecutwfc    				100
scf_thr        				1e-8
scf_nmax      				100
gamma_only 				0
smearing_method   			gauss
mixing_type				pulay
mixing_beta             0.4

dft_functional			hse
exx_separate_loop 1
exx_pca_threshold 1e-4
exx_c_threshold 1e-4
exx_dm_threshold 1e-4
exx_schwarz_threshold 1e-5
exx_cauchy_threshold 1e-7
exx_ccp_rmesh_times 10
