ATOMIC_SPECIES
Si	1	Si_ONCV_PBE_FR-1.1.upf					#Pseudopotentials are downloaded from http://www.quantum-simulation.org/potentials/sg15_oncv/upf/

NUMERICAL_ORBITAL
orb_Si.dat

LATTICE_CONSTANT
1.889766

LATTICE_VECTORS
0.0	2.708337	2.708337
2.708337	0.0	2.708337
2.708337	2.708337	0.0

ATOMIC_POSITIONS
Direct

Si
0
2
0.125	0.125	0.125	0 0 0
0.875	0.875	0.875	0 0 0
