ATOMIC_SPECIES
Al  1.000  Al.pz-vbc.UPF

LATTICE_CONSTANT
4.5  // add lattice constant

LATTICE_VECTORS
1 0 0
0 1 0
0 0 1

ATOMIC_POSITIONS
Direct //Cartesian or Direct coordinate.
Al      // Element type
0       // magnetism
1       // number of atoms
0.0 0.0 0.0 1 1 1
