ATOMIC_SPECIES
Al 26.98 Al.pbe-rrkj.UPF auto

LATTICE_CONSTANT
7.50


ATOMIC_POSITIONS
Direct

Al
0.0
1
0.00 0.00 0.00 1 1 1
