#This test is from example/scf/lcao_Si but change to Pseudopotential with pswfc

ATOMIC_SPECIES
Sn 1.000 Sn_dojo_nsoc.upf #MUST USE PSEUDOPOTENTIAL WITH PSWFC!

NUMERICAL_ORBITAL
Sn_dojo_6au.orb

LATTICE_CONSTANT
1.889726877

LATTICE_VECTORS
  4.64567349   0.00000000   0.00000000
  2.32283620   4.02327092   0.00000000
  2.32283597   1.34109040   3.79317605

ATOMIC_POSITIONS
Direct
Sn
0.00
2
  0.87500000   0.87500000   0.87500000 m 1 1 1
  0.12500000   0.12500000   0.12500000 m 1 1 1
