ATOMIC_SPECIES
Zn 1.000 ./Zn.LDA.UPF
O  1.000 ./O.LDA.100.UPF

NUMERICAL_ORBITAL
Zn_lda_8.0au_120Ry_2s2p2d
O_lda_7.0au_50Ry_2s2p1d

LATTICE_CONSTANT
6.1416 

LATTICE_VECTORS
1.00	0.00	0.00
-0.5	0.866	0.00
0.00	0.00	1.6

ATOMIC_POSITIONS
Direct

Zn
0.0
1
0.00	0.00	0.00	1	1	1

O
0.0
1
0.33333	0.66667	0.50	1	1	1 
