INPUT_PARAMETERS
#Parameters	(General)
suffix	            autotest
pseudo_dir	../../PP_ORB
orbital_dir	../../PP_ORB

calculation         scf
symmetry            1

#Parameters (3.PW)
ecutwfc             20
scf_thr                 1e-8
scf_nmax               100

#Parameters (LCAO)
basis_type          lcao
smearing_method            gaussian
smearing_sigma               0.02

cal_force                1
#test_force          1
cal_stress               1
#test_stress         1

mixing_type         broyden
mixing_beta         0.4
nbspline            10
