INPUT_PARAMETERS
#Parameters	(General)
suffix	            autotest
pseudo_dir          ../tools/PP_ORB
ntype               2
pseudo_type         upf201
calculation         scf
symmetry            1

#Parameters (3.PW)
ecutwfc             20
dr2                 1e-8
niter               100

#Parameters (LCAO)
basis_type          lcao
smearing            gaussian
sigma               0.02

force                1
#test_force          1
stress               1
#test_stress         1

mixing_type         pulay
mixing_beta         0.4
nbspline            10
