INPUT_PARAMETERS
#Parameters	(System)
suffix                  autotest
ntype			1
nbands			4
stru_file		STRU
kpoint_file		KPT
pseudo_dir		../tools/PP_ORB/
orbital_dir		../tools/PP_ORB/
latname			sc
#Parameters (PW)
ecutwfc			25.0              # Rydberg
#Parameters (electronic)
basis_type		lcao 	
scf_thr			1e-10

calculation     	ienvelope 
out_wfc_lcao		1
gamma_only		1
