INPUT_PARAMETERS
#Parameters (1.General)
suffix			autotest
calculation     scf
device          gpu
gamma_only      1  # GPU acceleration currently only support gamma_only set to 1.
ks_solver		cusolver  # if not set, the default ks_solver is cusolver,
                          # you can also choose genelpa or scalapack_gvx.

#nbands			8
symmetry		1

#Parameters (2.Iteration)
ecutwfc			100
scf_thr		    1e-6
scf_nmax		100
cal_force       1
cal_stress      1

#Parameters (3.Basis)
basis_type		lcao

#Parameters (4.Smearing)
smearing_method		gauss
smearing_sigma		0.002

#Parameters (5.Mixing)
mixing_type		broyden
mixing_beta		0.3
