INPUT_PARAMETERS
#Parameters	(General)
suffix          autotest
pseudo_dir	../../PP_ORB
ntype			1	
nbands			8
calculation     md
read_file_dir   ./

#Parameters (Accuracy)
ecutwfc			20
scf_nmax			20

basis_type		pw
md_nstep           3

cal_stress          1
cal_force           1

ks_solver       cg
mixing_type     pulay
mixing_beta     0.7

md_type          4
md_tfirst        10
md_dt            1
md_restart       0
init_vel         1

msst_qmass       1
msst_vel         10
