INPUT_PARAMETERS
#Parameters     (General)
pseudo_dir          ./
ntype               1
nbands              10
pseudo_type         upf
gamma_only          0


calculation         relax
symmetry             0

nstep               200
force_thr_ev        0.001
out_level           ie
move_method           cg
#out_charge          1

#lattice_change_ini  0.1
stress_thr          0.000001

smearing            gaussian
sigma             0.02
#Parameters (3.PW)
ecutwfc             50
dr2                 1e-8
niter               100

stress              1


#Parameters (LCAO)
basis_type          lcao
#charge_extrap       second-order
#out_dm             0


mixing_beta         0.4

#start_wfc random
