INPUT_PARAMETERS
#Parameters	(General)
suffix          autotest
ntype			1	
calculation     md
basis_type      pw
read_file_dir   ./
md_nstep           1

md_ensolver    LJ
lj_rcut         8.5
lj_epsilon      0.01062
lj_sigma        3.360

cal_force           1

md_type         3
md_dt           10
md_tfirst       120
md_restart        1
