ATOMIC_SPECIES
Ar 39.948 Null

LATTICE_CONSTANT
1.8897270

LATTICE_VECTORS
35.024 0 0
0 35.024 0
0 0 35.024

ATOMIC_POSITIONS
Cartesian
Ar
0
864
28.8101358421	5.0816851588	30.1566846343	1	1	1
31.8091206256	26.8173009506	7.9554807827	1	1	1
16.3800421681	2.3909094741	0.6758210696	1	1	1
25.4825719051	8.1402755657	26.8950250852	1	1	1
32.4217650793	11.0698916708	16.4712727741	1	1	1
4.6847455245	19.2493869467	26.8563545197	1	1	1
27.0861842116	26.7593079371	30.5343929611	1	1	1
6.6757168941	30.7480288448	6.0357086279	1	1	1
8.7393225520	34.9983624639	33.0990594444	1	1	1
21.7595542908	29.8673205721	14.3123468563	1	1	1
17.5174345342	2.3963413408	20.8074605475	1	1	1
3.0406401402	29.6395528294	7.4866362637	1	1	1
13.2666724936	24.1370523882	25.9190043325	1	1	1
12.7668272093	1.4509521226	2.2937475989	1	1	1
33.0733669523	1.6745735657	1.7769727954	1	1	1
21.0344499197	12.1713456515	17.4996661873	1	1	1
28.2532446152	33.7099876440	19.7967965618	1	1	1
12.6473222581	19.6480257535	14.6320048648	1	1	1
12.4786494213	26.2328147704	13.4044853490	1	1	1
30.4364199829	8.7137048775	0.6056042635	1	1	1
9.8389745398	26.8270523758	25.7342959363	1	1	1
19.2131700512	0.7385162068	6.7377226811	1	1	1
19.7420340853	8.0734694375	6.7437982427	1	1	1
5.9899686927	8.1865985140	27.1173373263	1	1	1
11.2200324567	30.1935862481	6.9372744580	1	1	1
7.7129970126	0.7677702238	26.7670104981	1	1	1
33.0930582263	11.9753307864	21.9995750286	1	1	1
32.6178540432	14.3640536760	13.5661890378	1	1	1
34.8565273866	7.2873609434	26.3724778555	1	1	1
30.2901255430	20.5751764359	19.9512736615	1	1	1
31.3256337918	18.6509186269	26.0919347468	1	1	1
2.3454458359	9.9299914804	2.5857099602	1	1	1
19.9380514673	22.8262621176	33.8675960177	1	1	1
12.8418619510	8.4099328557	13.4647059492	1	1	1
1.9310384157	3.2757810499	5.1006036270	1	1	1
25.3784145886	33.8761312790	33.6763871973	1	1	1
9.5405483775	19.5671766008	8.3862518066	1	1	1
6.6811596511	2.8811804264	20.9845034289	1	1	1
24.1980165268	12.9410785476	3.8403943457	1	1	1
18.3278093975	34.7179528079	13.4685143363	1	1	1
14.9608630920	12.5096495441	8.6024991559	1	1	1
26.8704768659	8.7590153752	10.5887993375	1	1	1
6.5219508265	12.1393309657	4.8916922067	1	1	1
7.6498517276	12.8611204757	14.1748462520	1	1	1
5.8980428873	4.0071206846	6.7820246045	1	1	1
31.3718099883	10.4190978779	3.6939726579	1	1	1
27.9825233493	4.0587748405	2.5297451385	1	1	1
10.1336059690	19.2818753313	27.2555339156	1	1	1
6.5062895855	7.8868498900	5.2244210124	1	1	1
8.8690438575	31.5839264881	34.4394112955	1	1	1
3.4107152740	9.8698312979	34.0250282646	1	1	1
29.7504516795	15.7097047309	25.7430641732	1	1	1
19.2435356393	7.7259426832	20.4075022244	1	1	1
29.1144657842	9.0760664600	22.9720215367	1	1	1
4.3673059836	1.9510135166	15.1120066467	1	1	1
1.3811720726	22.6853623335	16.2406494013	1	1	1
24.1331909175	32.1782044671	25.8363099534	1	1	1
8.1001968391	21.2326688633	29.0278465294	1	1	1
16.0888982215	28.9802702558	1.4397983783	1	1	1
22.2212597798	15.7155049168	1.7050841959	1	1	1
34.4979349680	9.4388900821	4.8927286319	1	1	1
29.0201995210	9.8443409996	32.0809663429	1	1	1
21.8492405835	0.2347417578	33.0284733307	1	1	1
33.9709621681	11.5474905607	1.6047558128	1	1	1
3.4672300290	6.4511614150	3.6298635443	1	1	1
23.6656259889	0.7561014644	24.6422941583	1	1	1
11.5889198490	13.6646992299	22.2140790376	1	1	1
20.7373992922	9.0499725927	15.1354605794	1	1	1
11.6644071053	28.6271017774	29.2363457536	1	1	1
12.0723020105	19.0853909418	18.2770287073	1	1	1
20.9445200805	20.5583331873	28.3532620849	1	1	1
2.7629859160	30.3824545008	26.9836182357	1	1	1
25.2899340216	31.6590232756	13.7398991040	1	1	1
5.7617900200	29.4208601864	9.6276598602	1	1	1
32.1402370682	5.2490178556	14.2034584306	1	1	1
21.5112174804	33.2363581328	13.3971505533	1	1	1
33.4490586742	20.5209618073	15.8223119139	1	1	1
25.7675495465	29.7748177961	10.6168454045	1	1	1
4.8585833812	17.7473927830	29.8784905987	1	1	1
20.0533531964	32.0780621749	8.0572719373	1	1	1
25.7359233095	13.2528280612	0.3723792136	1	1	1
26.1669849252	11.5028464103	21.4671831835	1	1	1
1.1634133423	20.8558198146	30.1940136422	1	1	1
0.2255768181	31.2805151022	1.4497851847	1	1	1
10.8356402615	32.1311176298	19.1472441551	1	1	1
1.8272111160	19.4321617300	5.7446021835	1	1	1
21.6938096050	10.0330958489	11.3447144568	1	1	1
28.0336972332	30.7611523807	34.0697245847	1	1	1
18.1684411279	23.5318178464	17.6427367531	1	1	1
12.8597557082	8.7187369072	8.9495026147	1	1	1
4.8533507979	27.2609367299	30.3324824676	1	1	1
8.7089155860	14.1391572428	32.5833531725	1	1	1
26.4978977601	26.2317805104	24.1623241854	1	1	1
21.8936289966	10.3611474470	31.8522060487	1	1	1
24.7899265045	5.9434819579	12.4097096815	1	1	1
2.9279320630	9.8856108221	19.7476189471	1	1	1
15.8196421655	9.0156522928	34.0607572686	1	1	1
24.8457003728	15.4127851421	27.6010469698	1	1	1
5.5147064073	6.7606261790	34.2397852558	1	1	1
33.8330120515	27.5926191137	10.5784211839	1	1	1
3.4125105261	1.7891136019	11.1653173023	1	1	1
16.9788571197	34.4320334785	28.8908707277	1	1	1
33.3496127149	5.4740772650	22.6521613506	1	1	1
5.6723934365	11.7724712308	28.4511794902	1	1	1
4.3853808445	33.7389834454	8.7837304026	1	1	1
16.8272829966	6.0997324005	0.8388238283	1	1	1
22.6480509471	9.4351002132	19.2499983238	1	1	1
27.4489338990	4.6824235283	9.9535691028	1	1	1
2.8197753901	4.5514323796	0.4812380194	1	1	1
28.7076645001	15.6177697404	14.1697722941	1	1	1
14.2400433812	18.7650687649	29.7742484967	1	1	1
22.1109643941	15.6051884027	15.7806842012	1	1	1
3.8091701416	25.9892843535	8.7875454212	1	1	1
14.8450237535	29.8313034963	9.6694961900	1	1	1
28.4232362990	23.2979083167	9.5353691666	1	1	1
11.4313673547	4.6611692027	1.3881511079	1	1	1
16.6629719460	34.1781879396	9.0001428248	1	1	1
16.5457777771	22.2439072192	27.3673303707	1	1	1
10.1898068833	18.7694368418	12.1339620420	1	1	1
14.9884858009	29.5420510376	33.2542176108	1	1	1
10.9374580522	31.6645610520	27.5335749086	1	1	1
23.7652304963	3.2013933262	32.7453596147	1	1	1
25.5692431979	15.2846244799	15.8898713218	1	1	1
19.1507376238	9.7668697259	3.1050777591	1	1	1
19.0533107349	5.5531237510	28.0478775261	1	1	1
26.1478896557	16.0418451693	3.8499906433	1	1	1
2.1363623022	11.0078196224	8.6458866841	1	1	1
30.3969278859	26.7809270383	26.9267509993	1	1	1
23.6144335074	10.1444512628	6.1641396279	1	1	1
18.5344855303	23.1716739284	11.9320826304	1	1	1
23.4555051588	19.7911064957	10.3608056948	1	1	1
14.5668070031	24.6290149945	29.7079065357	1	1	1
4.2103116974	14.5512802132	14.5646726836	1	1	1
1.1802589246	3.3832333757	20.7791030001	1	1	1
9.3691508588	28.4838361725	3.4233164713	1	1	1
9.8610644748	4.0630687631	33.0777135561	1	1	1
30.9927625431	0.4459917942	4.5568160502	1	1	1
5.3911984464	2.7718010197	24.0595064107	1	1	1
33.9485541056	18.9153147378	22.9946452204	1	1	1
34.1088655826	4.9005561454	17.0178730476	1	1	1
6.1429837146	13.2699573464	10.9842064920	1	1	1
12.4180825804	20.6237382629	4.0533667674	1	1	1
18.4006870623	11.8521848652	14.9095808618	1	1	1
3.9438597038	24.3486071976	30.5332448176	1	1	1
30.7934956270	18.2531136719	17.2902741958	1	1	1
33.3882064535	15.4783930485	27.7229078702	1	1	1
14.1806232432	16.4602008544	27.0059359576	1	1	1
13.7669097137	19.9811992259	26.4633099413	1	1	1
2.4814719356	13.1473496173	18.1613132250	1	1	1
2.8757184052	25.9310953716	5.2851948602	1	1	1
18.3757309516	31.8020262959	23.4759723481	1	1	1
19.7099678140	4.0614708674	24.5393367246	1	1	1
1.6100677460	16.6118534717	24.3434185082	1	1	1
32.8925287897	15.6671014060	23.9605410229	1	1	1
29.7965314660	29.0988390775	29.4930668514	1	1	1
7.0857192376	2.2450269089	30.7905970141	1	1	1
8.9524355432	11.1227415807	26.0158317102	1	1	1
29.7183432639	27.5289650670	22.9730505216	1	1	1
6.5793062699	20.3472298095	4.5224535370	1	1	1
16.1096853930	7.8843083500	5.8670931063	1	1	1
28.7471873638	5.6669539268	34.4725195070	1	1	1
17.4914157033	31.3849916461	16.8186867134	1	1	1
34.9887751791	1.5804658482	28.9017958910	1	1	1
8.1219314719	26.9627031102	12.4918285427	1	1	1
18.5243521113	34.1816715054	19.5663025954	1	1	1
10.9005836456	25.1976820671	28.8838319127	1	1	1
12.5013545019	32.9211130044	32.3184279220	1	1	1
20.5523783282	24.5378998805	21.3112489328	1	1	1
27.9822220287	9.3177717983	14.0244966584	1	1	1
14.4951255137	32.9855692803	12.1025762747	1	1	1
10.9178415980	17.8196741835	34.7096760082	1	1	1
15.1416923296	12.8187036257	32.9257235373	1	1	1
29.2567870231	14.6794831564	1.5035479611	1	1	1
26.6795925070	13.7482545839	31.0090972820	1	1	1
32.2749700771	34.6980881334	29.9235774919	1	1	1
21.5973381695	4.3905188126	20.3873745371	1	1	1
9.4913946391	4.0423987567	28.2407484695	1	1	1
21.9098698710	32.5643539333	0.3655224963	1	1	1
5.8652023942	4.6448820417	28.2493391124	1	1	1
3.3616011995	14.9840706007	27.0350640978	1	1	1
3.7679217363	29.3298451778	23.4982031044	1	1	1
30.7241169386	21.4006954458	32.0706507084	1	1	1
3.5739615492	4.8853916802	17.1413579266	1	1	1
5.6293425844	19.3927947873	7.6742436736	1	1	1
8.3253141235	19.5761546956	1.7869999654	1	1	1
22.4454570093	7.6218878806	28.5714829133	1	1	1
31.8939688292	1.1520272006	23.5597657881	1	1	1
34.3434405346	15.0293152695	10.1063467147	1	1	1
8.0441510382	7.0201466977	20.4022512641	1	1	1
31.0142276638	7.5317880222	30.0458589381	1	1	1
23.0288703867	23.2195365962	26.3023087780	1	1	1
13.1544345204	33.2985796207	3.7584536378	1	1	1
20.3796925816	25.7702111301	5.7602453508	1	1	1
17.6858289958	27.0300596253	24.4022863703	1	1	1
21.1492291544	4.4530043233	6.6782024599	1	1	1
23.5411021989	15.3894195514	33.2207704957	1	1	1
9.2986115876	3.7780207958	4.8314310646	1	1	1
20.4911324761	31.9120135831	4.2832738986	1	1	1
12.3351364249	4.9820752301	26.2099882779	1	1	1
21.8744159556	17.1919722617	28.7197416703	1	1	1
26.7954839731	15.0013783165	11.2809511015	1	1	1
19.8597026390	8.0644205690	34.5284501167	1	1	1
29.2858709244	34.2109685012	31.6979208573	1	1	1
13.0477162553	27.2643654699	1.0904593373	1	1	1
6.6323533115	34.8523887985	16.9268572690	1	1	1
15.6635621705	20.7440841268	10.9710098979	1	1	1
30.4498826243	28.4852310689	12.1648707513	1	1	1
28.2617385907	12.2572159821	16.4671482124	1	1	1
19.3980837520	28.4899625103	3.7249876774	1	1	1
33.0693813849	31.3355833846	9.9223533740	1	1	1
24.6115040914	7.3128351989	4.0024728224	1	1	1
29.4132354553	27.0848773370	1.4590979956	1	1	1
3.0886125410	15.7265455562	20.5505655242	1	1	1
32.5782064267	26.1609923343	0.8167678333	1	1	1
8.6101169977	23.4427691738	11.5315799706	1	1	1
10.1574746497	29.2900381233	15.6613173595	1	1	1
34.6430611294	33.0453948485	7.1301619645	1	1	1
8.0012374426	20.6984759367	14.5609562035	1	1	1
19.4250052159	5.1811522773	32.6697852074	1	1	1
0.9622429935	14.6410756922	29.8597524526	1	1	1
3.3326464226	29.4569371143	0.6657277206	1	1	1
21.0871471518	5.9817742526	13.4581126226	1	1	1
20.1664382464	18.8074263075	25.4737444470	1	1	1
8.7848477620	14.1773415068	1.9223077917	1	1	1
32.3572394613	13.8841960617	31.9830779050	1	1	1
19.4830558493	26.1167601117	15.2600517687	1	1	1
21.9824784258	0.7702833881	19.4598672518	1	1	1
31.3439484035	22.3340572672	26.6903417306	1	1	1
2.1228654454	0.9565637732	32.3930239008	1	1	1
4.4185210583	0.0170554210	21.7214459607	1	1	1
15.8109204253	21.1415157850	3.7507372805	1	1	1
8.5623250787	21.8804433451	32.8349577639	1	1	1
6.0824550890	10.0607481490	8.3749494533	1	1	1
26.0982176982	7.3321021761	30.5349369363	1	1	1
21.3059211173	19.6295203510	33.9019906013	1	1	1
17.2727070429	15.0585076345	20.9235536318	1	1	1
13.9744977085	23.8995147073	2.5669772629	1	1	1
2.3757401458	3.7643687127	27.2385624200	1	1	1
27.6670807877	15.5689514908	22.9224873724	1	1	1
15.6052427336	8.9400208904	16.6640858584	1	1	1
24.5609793056	22.8975078766	8.3594066595	1	1	1
26.2148974323	16.9701710431	0.4542145411	1	1	1
24.7997052140	11.5009618673	17.4831715083	1	1	1
18.6643699609	14.7662525042	2.6606828856	1	1	1
11.2708580049	16.3511248277	30.4082139238	1	1	1
2.9852308465	28.0018891138	11.7564231027	1	1	1
14.2782912125	33.5554921533	25.9728041223	1	1	1
3.0783607423	34.3075215797	16.3769092441	1	1	1
19.9260849837	11.2205922052	7.6977786841	1	1	1
31.8713980400	2.5002857267	26.5307783382	1	1	1
11.4123007997	12.0231201939	0.5633735899	1	1	1
24.5584910960	7.6468853918	21.2580309043	1	1	1
33.4425389911	22.5968053939	29.4262846314	1	1	1
26.3446890675	1.6913917534	17.7853758365	1	1	1
30.3214945087	7.3127056820	8.8816774310	1	1	1
21.1300086657	17.5916543486	12.6278285819	1	1	1
2.0218897292	19.7409712379	18.7782246462	1	1	1
8.0020758935	16.7320628266	5.0743189881	1	1	1
18.2864577336	9.0994353008	12.7887703214	1	1	1
33.4244206036	4.6541704717	29.9120583386	1	1	1
10.1497529051	0.3882634319	29.5418086355	1	1	1
5.9941338000	18.2089983013	15.8950741301	1	1	1
31.1412347855	23.1380947839	7.1858770655	1	1	1
28.0646448027	30.1130454354	25.3881961152	1	1	1
1.9027224805	11.0584992416	23.0216566492	1	1	1
19.5792709080	21.0449448253	2.4116301315	1	1	1
14.2281590799	2.4690045130	23.3733807294	1	1	1
28.5188037665	8.3156196257	18.7878305277	1	1	1
5.1604893838	19.5062476391	20.5025474818	1	1	1
6.5809935818	29.3005438585	15.5732847349	1	1	1
4.0119114443	31.6381310534	21.0219039166	1	1	1
15.4267773491	7.3234885129	19.6405073240	1	1	1
2.1833340239	30.9641732047	4.4352759231	1	1	1
17.0403146043	10.3285729192	19.5672634874	1	1	1
12.2004525064	8.3333217281	20.8845975711	1	1	1
34.2521741295	30.4419641554	19.2373790356	1	1	1
20.3835673689	21.0526680983	22.1574608320	1	1	1
25.8131227897	7.4387618638	7.3285287462	1	1	1
10.4880287503	22.3546244724	1.4273975430	1	1	1
14.4709349623	32.9902917936	16.4116284836	1	1	1
12.4474818280	3.2280807001	29.6740251188	1	1	1
10.9700818004	25.1751105327	4.1175054803	1	1	1
22.5308092471	30.8139003612	10.7619666907	1	1	1
12.4884105710	6.1972445913	6.0968854917	1	1	1
6.0460123943	26.8611640928	24.1382955649	1	1	1
13.2315371015	27.3255303124	7.0947428540	1	1	1
20.8353635074	2.0102525256	13.1260783594	1	1	1
7.1136976179	24.6850713042	29.4964429853	1	1	1
17.8000106699	6.9705753087	23.7818329527	1	1	1
30.4916798998	2.3145650584	12.4093826039	1	1	1
12.6125255569	4.8684624898	10.5135510505	1	1	1
29.5195835882	12.0433807306	12.6668099790	1	1	1
28.8499172298	31.6302614624	13.2893800747	1	1	1
24.2128237196	16.7925841463	9.6178184753	1	1	1
5.8359346818	2.4683079808	34.7335760635	1	1	1
33.5278605029	25.5881371061	4.5158678215	1	1	1
2.0586126346	30.6930506072	17.3108904626	1	1	1
31.2950728198	14.0788898837	18.2002108314	1	1	1
1.1363241598	11.0352270344	30.2875013670	1	1	1
9.6206777415	8.3188556634	29.1824254115	1	1	1
5.2049179361	21.8370781600	16.8072929610	1	1	1
22.7897199419	13.3071185763	29.4143433727	1	1	1
7.3774038891	4.1820784516	15.1085216830	1	1	1
15.8823229469	33.0114896215	32.6014334891	1	1	1
11.6440610649	10.6112373078	23.7796407819	1	1	1
12.2229320854	22.8167305037	11.7824999981	1	1	1
5.1661919066	22.8424238037	7.0261078245	1	1	1
1.1072709001	25.6214720947	17.9084369611	1	1	1
8.0598011154	9.2420594682	15.6463159356	1	1	1
5.2541033790	19.9798942312	34.6394696955	1	1	1
2.1288490360	12.4383722562	5.5071447681	1	1	1
12.2365064299	13.1642930998	30.7101319110	1	1	1
31.8099708236	17.1324878315	32.8608994607	1	1	1
7.0162868017	3.6608258009	11.1758513981	1	1	1
12.4094335913	16.3943559667	2.8533946829	1	1	1
9.7993704624	8.3453004678	3.3377547298	1	1	1
18.0940749084	18.8099283434	30.7898849140	1	1	1
0.2711879684	28.2958805698	24.0556257825	1	1	1
14.4905286456	25.6841881919	32.8419047039	1	1	1
4.9331799683	28.5740805900	3.6147433083	1	1	1
7.0635910193	16.3476925451	19.4509448558	1	1	1
21.1614280451	22.3857755894	5.7402436522	1	1	1
22.6485429494	6.9346998182	32.3011024846	1	1	1
2.2367045602	21.1356068509	22.1613209644	1	1	1
32.0634331412	25.4207540539	15.0810268203	1	1	1
27.4689940779	19.7496904023	2.2839346888	1	1	1
1.2237158155	16.7928254309	13.0200117179	1	1	1
27.7368752552	23.1219538108	20.0599167011	1	1	1
4.3410465802	12.6959716697	24.7208763632	1	1	1
32.2026725668	15.9408355397	7.4009669355	1	1	1
33.2592816013	2.7832751085	5.6203203969	1	1	1
20.1538645176	14.3531510847	10.2243575828	1	1	1
3.4870908481	6.1436297635	24.9927123854	1	1	1
1.2868151641	16.6721247465	3.4090701065	1	1	1
12.3800151069	21.2698539236	8.2173839602	1	1	1
5.1012973660	26.9049006957	20.4002978660	1	1	1
28.7204350072	34.8466916412	25.5007931569	1	1	1
31.6039792065	5.9594333295	26.1601043262	1	1	1
7.7119731201	18.4088596645	31.5363922826	1	1	1
23.4411442127	4.0942585336	23.2634350868	1	1	1
22.7222585152	10.9942528328	22.8269731757	1	1	1
29.5118781252	30.4710646995	9.2971698683	1	1	1
3.1338555032	31.7237639588	13.6892646363	1	1	1
5.9318273375	34.4295909813	5.2857785284	1	1	1
16.3897541998	30.0260765796	13.7498956051	1	1	1
30.2639884182	19.9699180891	7.7630705815	1	1	1
27.1453282109	22.9096463659	32.0548555493	1	1	1
17.1915852425	18.5460037046	20.7820384574	1	1	1
9.2712735385	7.6707932561	34.5348981749	1	1	1
30.6226565908	13.3804900611	5.9004314881	1	1	1
25.0044474589	25.8230623148	10.8535576049	1	1	1
26.8856913290	26.1058815777	34.1070530106	1	1	1
16.2467647541	6.8746518686	30.8426452106	1	1	1
9.4441925967	15.7640219765	16.0513160089	1	1	1
29.3968769678	23.6578233879	13.0981450577	1	1	1
2.9651062370	32.8095906283	30.5626358551	1	1	1
9.2420015259	8.6893003396	7.4552490051	1	1	1
27.2630129891	3.6421591762	13.6903833446	1	1	1
2.2649350957	34.9985770617	5.2975835694	1	1	1
14.1494194160	32.6368420228	20.1247096666	1	1	1
28.6440873175	19.2613313235	33.9698484277	1	1	1
15.7439708062	14.1702735854	11.9756649004	1	1	1
20.7931659753	23.7194355884	30.0035594519	1	1	1
8.8110697675	34.9422587195	20.3958221750	1	1	1
19.8779507257	9.6028624301	23.4337923582	1	1	1
15.8314913176	3.0530407136	28.6243263260	1	1	1
0.5092575048	31.4502495422	22.7955766148	1	1	1
28.2296683340	34.3671913453	2.9435169291	1	1	1
33.9918824615	20.0165686636	32.5728724055	1	1	1
6.8668065327	6.2065109653	24.1613704024	1	1	1
8.3307642493	1.8350269110	1.7997570090	1	1	1
33.1748560911	23.3064910089	18.2895480010	1	1	1
20.2555382697	26.1657756445	33.6471676191	1	1	1
10.0628407720	32.9541651077	24.2924062306	1	1	1
20.4982925988	12.9828067528	4.7044990586	1	1	1
26.0783113559	12.1220763519	13.8404652334	1	1	1
26.6687776333	27.9897715543	13.5238832040	1	1	1
18.3461899699	6.6681410657	17.1287472230	1	1	1
6.2172593745	32.2475331912	27.2413250235	1	1	1
24.5618464682	19.3901350345	29.2931103087	1	1	1
29.0942983121	30.8787626479	3.5353981195	1	1	1
23.1706531634	34.7668608018	10.9929649684	1	1	1
23.1321065573	3.5834796258	16.2717051985	1	1	1
2.2082335300	22.4879149915	33.5521635967	1	1	1
34.7947678734	32.4334313576	15.4487793185	1	1	1
15.1369652551	29.2444584505	26.0276703696	1	1	1
32.5331653558	10.4772757488	27.4313925503	1	1	1
1.2533541705	34.1797119180	20.0635280046	1	1	1
12.0922489733	29.4183185349	20.5437195533	1	1	1
30.6769744267	3.4931959954	8.3974006664	1	1	1
20.7422417416	31.0700111501	27.8548085173	1	1	1
25.4096677429	32.9320718054	17.3167828091	1	1	1
23.5790502466	19.8637815717	25.5633029338	1	1	1
17.2598209755	26.7322298982	12.0982188435	1	1	1
1.4634686625	17.8543984173	27.9598700618	1	1	1
8.1745518232	15.0171589166	23.5024168253	1	1	1
29.2306003377	5.2522132746	5.8419565580	1	1	1
29.9460100112	25.6776840469	19.4375628583	1	1	1
1.3992669737	8.4963044902	16.8369042071	1	1	1
4.2720654268	0.0106853218	25.5683446598	1	1	1
32.5298841463	33.6190333059	20.3024219970	1	1	1
12.0867352440	34.4657027838	6.7077514700	1	1	1
6.3309290795	29.2316873596	34.3926716024	1	1	1
4.6807309048	25.3758673076	26.9489672488	1	1	1
6.9622549023	16.6414337619	26.3421380125	1	1	1
28.6126101885	25.8463862990	16.0607788611	1	1	1
18.9239452745	0.2374910447	34.5818607152	1	1	1
31.6988877755	9.2170154645	12.7619672231	1	1	1
0.5096909494	24.1141016840	1.4299836106	1	1	1
22.5513956312	14.8947095671	6.1587496222	1	1	1
14.5353199444	9.0092359815	26.0460439784	1	1	1
1.3635805747	13.3763863131	33.8465894594	1	1	1
13.2340852391	15.8446732054	16.1228006056	1	1	1
27.9106806548	16.2853673775	7.7504047497	1	1	1
32.3977023765	0.2869327141	9.9573884165	1	1	1
30.8586743651	22.0576370579	3.7687981063	1	1	1
18.5783769097	18.1399358669	3.8129420063	1	1	1
8.4338709105	18.4572639199	23.1649802000	1	1	1
29.9314780379	22.5155480802	16.8047185783	1	1	1
28.2644914473	3.5651548958	25.1773729508	1	1	1
0.8305755797	20.8840410142	25.8728798015	1	1	1
19.4869526875	1.4233862317	9.9725991018	1	1	1
21.9954138293	6.7149125120	17.4113841499	1	1	1
25.9059938992	29.2927091895	1.1853783213	1	1	1
16.3009858324	17.8018548981	16.8989097505	1	1	1
11.2192126378	24.2305316814	32.9818511281	1	1	1
18.9325363331	28.1929201753	17.7452832648	1	1	1
19.2672579755	14.5840243898	27.4652842801	1	1	1
15.1473793560	15.5433848641	30.6286687349	1	1	1
32.9559430433	19.2876440190	28.9996273478	1	1	1
22.5243198152	4.4204930614	26.7406267870	1	1	1
30.4515511032	12.1040441807	34.5466707181	1	1	1
29.7842058863	5.4315193365	22.0541278361	1	1	1
10.3853893010	1.4418254981	10.3744238832	1	1	1
24.4265577010	33.3127082807	3.0287545914	1	1	1
0.6248553866	15.3182131235	6.7710301875	1	1	1
34.7938355625	28.2576262812	34.7052382161	1	1	1
23.2498887854	21.7511990935	2.5005370848	1	1	1
4.8432006130	17.1491482127	23.0641133714	1	1	1
9.2442825119	28.8247025370	9.4604290625	1	1	1
4.7591003149	15.3895966579	3.3297127005	1	1	1
33.5222106591	26.8827695203	27.6986422227	1	1	1
27.0828695876	18.6299772519	10.3011304239	1	1	1
32.2133259606	4.9061781340	0.2237850439	1	1	1
8.4385170342	26.5305095734	16.7406798443	1	1	1
31.3366073487	6.6189863166	3.4297597861	1	1	1
17.0305973739	18.5168170919	27.5285151469	1	1	1
24.2413929132	17.0227393567	24.1151085133	1	1	1
7.1294351634	23.9060058753	18.6580826457	1	1	1
14.7415105301	1.6260767099	14.5170888340	1	1	1
8.9033377671	30.6861757957	31.0271494035	1	1	1
18.0407607840	34.1336900220	3.0788490839	1	1	1
6.2343246814	24.4893493892	14.2276371083	1	1	1
29.5388263152	17.6026756839	29.3366799792	1	1	1
11.9597409240	1.4710059052	33.6475819865	1	1	1
33.6620117192	19.4087545666	19.1774560600	1	1	1
2.6167823248	25.2899159788	23.9341097648	1	1	1
16.9056188920	24.9295616555	34.9674325848	1	1	1
10.4255256251	10.8297344714	13.0319312544	1	1	1
7.1337082153	16.3171312327	13.1364473783	1	1	1
30.3968951074	15.3955331451	10.6009027951	1	1	1
16.7155302664	28.6972428415	6.8192188605	1	1	1
26.4336200060	9.6935209427	0.7007100952	1	1	1
8.5825519462	26.2627748136	21.8647172349	1	1	1
21.3564350677	32.5971442783	17.9640000340	1	1	1
7.2941708064	16.6272246860	34.7117878861	1	1	1
6.5156641319	32.2180908720	2.0778771427	1	1	1
17.0411137999	1.2612914867	25.5503973254	1	1	1
2.2078685074	6.5808919863	29.0831787488	1	1	1
9.5943564919	4.6648990023	8.7227406822	1	1	1
22.3451382047	1.7916329267	8.1693316521	1	1	1
26.4808675742	27.5403707065	3.9580153566	1	1	1
27.1289584958	29.2570750739	7.0249664066	1	1	1
14.2718505101	24.4943499549	19.4226640461	1	1	1
29.4037988872	33.7445463981	10.4926394819	1	1	1
18.1596027513	15.3969024659	14.5638389701	1	1	1
22.2748547427	22.5957744893	17.5681271602	1	1	1
23.4105230772	32.2628016061	29.8379356291	1	1	1
34.7643434612	32.9120793427	33.2819127270	1	1	1
30.9224970565	32.9654926733	0.5604299668	1	1	1
16.9382131614	2.9546553498	11.7247510445	1	1	1
13.1141843824	10.2972552759	5.4283524287	1	1	1
5.0127601729	12.8211052602	1.3524249238	1	1	1
24.8518434112	19.0816573153	6.9911398949	1	1	1
22.6383707241	12.2149870603	14.4271234067	1	1	1
33.9130883359	3.4626362158	9.8970165820	1	1	1
32.5547666477	18.3297101350	10.4800220824	1	1	1
13.5135163201	19.0994291634	21.9864788777	1	1	1
6.2990453635	13.0128570606	17.4274432629	1	1	1
33.6819275479	24.5213326570	25.4159968249	1	1	1
25.5340791751	0.4302169205	21.3660328474	1	1	1
18.4822250724	25.0290679107	27.2838116160	1	1	1
27.9930799065	8.6268709192	3.7010638124	1	1	1
16.6807344695	22.0195943629	21.4793732713	1	1	1
4.1911829379	13.1188841954	32.1427119630	1	1	1
1.0029700344	24.2844574663	21.1938027691	1	1	1
12.5690481812	2.8146600593	6.8726023232	1	1	1
10.5129843629	34.2860895102	1.0554365803	1	1	1
13.4247489005	34.8569043377	29.1485021173	1	1	1
9.1612877362	30.9703059780	12.9151850581	1	1	1
25.5515356421	10.6070849369	32.2911052323	1	1	1
19.0589901525	6.6669713854	10.2705666291	1	1	1
24.0550932701	17.1027047869	19.4274205563	1	1	1
7.8665655689	31.8662921723	21.5432288194	1	1	1
0.2498130346	34.9118627802	23.8208820777	1	1	1
13.4138914510	7.4674740951	29.0786965777	1	1	1
25.8491196080	22.2974936733	12.3590574168	1	1	1
11.6996531796	26.2214431367	17.0664539728	1	1	1
2.0767851526	7.9139783948	7.0700166766	1	1	1
24.3621448106	8.8369680596	14.9759941023	1	1	1
0.5930637724	33.0087041646	11.4508029690	1	1	1
32.3637071397	8.5329886067	23.6488953109	1	1	1
6.1791600340	9.1800917852	1.9058982575	1	1	1
11.2790010514	17.1065549871	24.4923291205	1	1	1
20.8010385956	34.5552347883	25.9454652514	1	1	1
12.2562305354	6.7588374300	17.1466821609	1	1	1
12.1627246818	1.4291852121	17.0219952251	1	1	1
13.3712265826	6.0235363408	33.0979946460	1	1	1
8.1751931418	21.8924354973	21.3570311389	1	1	1
28.3542538984	9.9205408090	7.1093582773	1	1	1
9.0531336374	27.0490765999	31.7167943165	1	1	1
28.4595050888	20.6735215108	28.5823056247	1	1	1
20.6762218261	18.1352005267	7.7129348019	1	1	1
18.4657581235	18.5125515972	10.8221458400	1	1	1
26.2055895553	1.0922994784	9.8085200044	1	1	1
31.2470514886	31.9231668112	17.3564185187	1	1	1
14.0907308334	12.6834314079	19.8242127096	1	1	1
12.1114841080	13.2217831260	3.8079057006	1	1	1
34.0526947854	29.0973956866	5.5418780816	1	1	1
28.8009030704	3.8774268160	18.4662980431	1	1	1
27.5829493792	18.6376287904	21.3341015671	1	1	1
7.7736158465	23.6660245112	26.1389989320	1	1	1
0.0714539765	7.9943455191	0.7156000601	1	1	1
21.4491944634	26.1663545380	27.0859166232	1	1	1
13.8429270650	20.5287761722	0.4735798114	1	1	1
30.7573006608	8.0253813694	16.1198942851	1	1	1
21.2131621969	14.0913350357	24.0908185016	1	1	1
2.2190507606	18.4576709546	32.9640027999	1	1	1
32.9996145650	6.0536684456	6.7867359279	1	1	1
9.6633730909	32.9289489141	4.5233036655	1	1	1
13.7066616567	11.3041262214	11.7476187303	1	1	1
16.9300919417	29.2271034216	21.3243544431	1	1	1
9.8676741044	14.5958464489	26.7752072543	1	1	1
13.7247570703	23.7329068868	6.0126563001	1	1	1
21.4506421893	29.0306071900	6.8378702261	1	1	1
1.0235925916	7.5072368047	22.8815105186	1	1	1
16.6264815987	15.4218431582	9.0881567679	1	1	1
0.9311839485	18.1686339104	9.7763892395	1	1	1
5.5847668329	34.0704595303	34.1897842187	1	1	1
10.3545981127	4.8235176757	22.6678718835	1	1	1
15.6335747175	27.5728163966	16.7274145878	1	1	1
0.3702602707	3.6194168990	24.8045849680	1	1	1
19.9180999833	12.5526031413	20.8230742843	1	1	1
23.2406311139	27.8576671508	22.5564790620	1	1	1
20.6528560256	16.9620995852	21.2346702654	1	1	1
14.9599661554	9.8522900134	22.6755774991	1	1	1
17.9992957170	24.7662772698	8.4884513348	1	1	1
21.6398493314	12.2546830744	1.2695760898	1	1	1
3.9995646453	1.1820864430	29.0275351318	1	1	1
1.0697742644	27.6328564237	2.9636724783	1	1	1
11.2061258902	12.1908157903	9.8978625097	1	1	1
15.3681001556	6.4048414251	9.6808183939	1	1	1
9.1803758427	23.1625611541	6.8186729955	1	1	1
29.4912343521	17.0436189580	4.7913205623	1	1	1
10.6435557705	4.1853471228	13.4010598625	1	1	1
19.0486030206	9.1756477528	30.2142044120	1	1	1
31.3533489515	21.1655896404	12.3055663509	1	1	1
28.8281580243	6.6553560810	12.5978795615	1	1	1
34.9957415769	22.1355481783	4.2828903270	1	1	1
15.2287381040	0.9193640464	18.4157145811	1	1	1
11.6752868135	1.5590955420	20.6118415332	1	1	1
26.4417770744	23.4997982708	1.4948999486	1	1	1
19.4827218999	32.7553649012	31.2626547303	1	1	1
1.8017330161	28.1813866592	20.2891243637	1	1	1
10.7326468045	21.4443741082	24.1147324967	1	1	1
14.8463013369	34.2231817685	0.8537903444	1	1	1
17.4276062929	3.8949819211	7.9880503673	1	1	1
22.6409456999	17.9608342561	4.1352215802	1	1	1
31.8208524624	31.3076594580	30.7576629852	1	1	1
15.1066709103	10.2798282287	30.6387237677	1	1	1
7.6658384326	6.8707151291	31.3672088034	1	1	1
5.7000066787	33.0037543217	11.7917061533	1	1	1
14.2269781371	1.2157954934	10.5771484245	1	1	1
6.6741829375	33.8167402412	30.6959155116	1	1	1
2.4925419718	21.2813636768	9.2001667629	1	1	1
27.5620044418	14.3972850470	19.2299631083	1	1	1
33.8026725408	29.9873373849	13.2348784156	1	1	1
25.3063268616	20.5134477453	34.4574978418	1	1	1
22.3092143309	7.5026825900	24.8468207617	1	1	1
8.7723275553	11.5506374562	30.3122479152	1	1	1
11.4684444587	9.9740424954	16.2781591349	1	1	1
11.9205692007	15.7290069969	12.6604666773	1	1	1
7.9327102873	28.6437761633	28.1815737405	1	1	1
17.9634747079	12.4253732489	23.4846707527	1	1	1
17.0729310355	9.6359500831	9.2550110145	1	1	1
3.3055193089	22.6104728874	13.5196644548	1	1	1
29.4335290987	23.9208321851	22.9950083400	1	1	1
25.8415602889	23.6224770969	28.3353418703	1	1	1
17.5510727814	3.5453778528	15.5826601969	1	1	1
17.9600726227	31.8628281260	34.7458377899	1	1	1
34.5197065376	17.3319479920	0.4846351408	1	1	1
34.3951190928	17.2130292312	16.5551281556	1	1	1
15.4355655919	24.3964600692	14.7838921244	1	1	1
27.2253877328	29.7094351755	16.1627106806	1	1	1
25.5493662405	26.5312684241	18.4147210426	1	1	1
8.1199212728	0.6423430660	13.6748281074	1	1	1
30.6424067749	28.7774672241	15.8493514677	1	1	1
34.5618079492	5.2117041685	2.8109922085	1	1	1
11.7248204353	9.4295255306	32.4229193896	1	1	1
2.7825450811	0.2569767116	1.4025711637	1	1	1
12.9132373068	30.6790531335	23.6756853923	1	1	1
34.3140203145	33.2944932907	27.2869830957	1	1	1
0.4265829876	24.1006154870	12.4236470996	1	1	1
15.6290942315	16.1065302276	1.9767802279	1	1	1
32.2267481402	1.7795400618	32.8142764853	1	1	1
0.5492857578	3.8992312670	32.5917013497	1	1	1
23.5708665435	20.6633056308	20.8443675411	1	1	1
6.3851811406	31.4038228977	18.3409353545	1	1	1
3.6898781264	18.7717697414	12.3743225786	1	1	1
22.7484906145	33.6675498731	6.3485851796	1	1	1
27.4328422272	29.5781609446	20.2836382304	1	1	1
4.8762068759	20.8064251940	31.3589001849	1	1	1
23.1885072408	28.5107298567	3.9142626079	1	1	1
4.9814135021	9.0699457302	30.9026540968	1	1	1
32.3259352927	0.5092365498	14.5095652360	1	1	1
26.6424512455	6.4250105855	23.9087952350	1	1	1
16.9579595632	19.4331100093	24.2234650959	1	1	1
24.6895760696	24.8709554199	21.6032323802	1	1	1
32.1090122427	24.1133770056	11.2056934539	1	1	1
30.8680056051	33.2455869294	7.4780185265	1	1	1
19.0557403802	15.5763837781	6.2689728770	1	1	1
1.7671249629	5.4650506327	9.5046576674	1	1	1
25.4388759228	32.6282506393	8.7185128054	1	1	1