INPUT_PARAMETERS
suffix			autotest
pseudo_dir              ../../PP_ORB
orbital_dir             ../../PP_ORB
ecutwfc                 50
smearing_method         fixed
nbands                  4
calculation             nscf
scf_nmax                50
pw_diag_thr             1.0e-12
scf_thr                 1.0e-15
init_chg                file
symmetry                0
towannier90             1
nnkpfile                diamond.nnkp
read_file_dir		./
