INPUT_PARAMETERS
calculation scf
suffix autotest
ntype 2
ecutwfc 100.000000
dr2 5.000000e-07
niter 35
basis_type lcao
dft_functional pbe
gamma_only 0
mixing_type pulay
mixing_beta 0.400000
smearing gaussian
sigma 0.020000
force 1
stress 0
out_descriptor 1
lmax_descriptor 2
deepks_scf 1
model_file model.ptg

nstep 20
