INPUT_PARAMETERS
#Parameters	(General)
pseudo_dir		../../../tests/PP_ORB
orbital_dir			../../../tests/PP_ORB
ntype			1	
#Parameters (Accuracy)
ecutwfc			50
scf_nmax		100
scf_thr                 1e-6
basis_type		lcao

smearing_method gaussian
smearing_sigma 0.01
mixing_type pulay
mixing_beta 0.4

out_pot 		2
