INPUT_PARAMETERS
#Parameters (1.General)
suffix                  autotest
calculation     	scf
dft_functional		hse
ntype			2
nbands			12
symmetry		0
init_chg		atomic

#Parameters (2.Iteration)
ecutwfc			10
scf_thr			1e-6
scf_nmax		10

#Parameters (3.Basis)
basis_type		lcao
#gamma_only		1

#Parameters (4.Smearing)
smearing_method		gaussian
smearing_sigma		0.02

#Parameters (5.Mixing)
mixing_type		pulay
mixing_beta		0.4

#Parameters (7.Hybrid)
exx_pca_threshold 1e-4
exx_c_threshold 1e-4
exx_dm_threshold 1e-4
exx_schwarz_threshold 1e-5
exx_cauchy_threshold 1e-7
exx_ccp_rmesh_times 10
