ATOMIC_SPECIES
H 1.00794 H.LDA.UPF upf201

NUMERICAL_ORBITAL
H_lda_8.0au_100Ry_2s1p.orb

LATTICE_CONSTANT
15

LATTICE_VECTORS
1 0 0 #latvec1
0 1 0 #latvec2
0 0 1 #latvec3

ATOMIC_POSITIONS
Cartesian

H #label
0 #magnetism
2 #number of atoms
0.502095395706  0.474068175363  0.509371266407  m  1  1  1  v  3.13896223228e-05  -0.000388799665071  -0.000251852083942
0.497904604294  0.525931824637  0.59202873359  m  1  1  1  v  -3.13896223228e-05  0.000388799665071  0.000251852083942
