INPUT_PARAMETERS
#Parameters     (General)
pseudo_dir                      ../../../tests/PP_ORB
orbital_dir                     ../../../tests/PP_ORB
calculation                     ienvelope
ntype                           1       
nbands                          8
#Parameters (Methos)
basis_type                      lcao
symmetry                        0       
#Parameters (Accuracy)
ecutwfc                         50
scf_thr                         1.0e-7  // about iteration
scf_nmax			100
#Parameters (File)
init_chg			file
out_wfc_r			1
