INPUT_PARAMETERS
#Parameters     (General)
pseudo_dir                      ../../../tests/PP_ORB
orbital_dir                     ../../../tests/PP_ORB
calculation                     get_wf
nbands                          8
#Parameters (Methos)
basis_type                      lcao
symmetry                        0       
#Parameters (Accuracy)
ecutwfc                         50
#Parameters (File)
init_wfc			file
out_wfc_r			1
