INPUT_PARAMETERS
ntype		2
nbands		24

calculation	scf
ecutwfc		120
dr2		1.0e-8
niter		100

smearing	gaussian
sigma		0.02

mixing_type	pulay
mixing_beta	0.4
#mixing_gg0	1.5

basis_type	lcao
gamma_only	0
symmetry	1
