INPUT_PARAMETERS
suffix      PbTiO3
ntype       3
#nbands      25
ecutwfc     50
niter       20
symmetry    0
ethr        1e-10
smearing    gaussian
sigma       0.002
calculation nscf
basis_type  lcao
ks_solver   genelpa
start_charge  file
berry_phase   1
gdir          1
