INPUT_PARAMETERS
#Parameters (1.General)
suffix			autotest
calculation     scf

nbands			6
symmetry		0
pseudo_dir	../../PP_ORB
orbital_dir	../../PP_ORB
gamma_only      0

#Parameters (2.Iteration)
ecutwfc			10
scf_thr				1e-4
scf_nmax			100

out_chg      1
dft_functional			scan

#Parameters (3.Basis)
basis_type		lcao

#Parameters (4.Smearing)
smearing_method		gauss
smearing_sigma			0.002

#Parameters (5.Mixing)
mixing_type		pulay
mixing_beta		0.7
