INPUT_PARAMETERS
#Parameters (1.General)
suffix			autotest
calculation     scf

nbands			6
symmetry		1
nspin           2

#Parameters (2.Iteration)
ecutwfc			20
scf_thr				1e-9
scf_nmax			100

cal_stress      1
cal_force       1

#Parameters (3.Basis)
basis_type		pw

#Parameters (4.Smearing)
smearing_method		gauss
smearing_sigma			0.002

#Parameters (5.Mixing)
mixing_type		plain
mixing_beta		0.7
pseudo_dir	../../PP_ORB
