INPUT_PARAMETERS
#Parameters	(General)
suffix              stress
pseudo_dir          ./
ntype               1
nbands              8
pseudo_type         upf
gamma_only          0


calculation         scf
symmetry             1

test_force          1
nstep               1
force_thr_ev        0.001
out_level           ie
move_method           cg


smearing            gaussian
sigma             0.02
#Parameters (3.PW)
ecutwfc             50
dr2                 1e-8
niter               100

stress              1


#Parameters (LCAO)
basis_type pw
charge_extrap       second-order
out_dm             0


mixing_beta         0.4
mixing_gg0          1.5


