INPUT_PARAMETERS
#Parameters	(General)
suffix              stress
pseudo_dir          ./
ntype               1
nbands              8
pseudo_type         upf
gamma_only          0


calculation         scf
symmetry             1

test_force          1
relax_nstep               1
force_thr_ev        0.001
out_level           ie
relax_method           cg


smearing_method            gaussian
smearing_sigma             0.02
#Parameters (3.PW)
ecutwfc             50
scf_thr                 1e-8
scf_nmax               100

cal_stress              1


#Parameters (LCAO)
basis_type pw
chg_extrap       second-order
out_dm             0


mixing_beta         0.4
mixing_gg0          1.5


