INPUT_PARAMETERS
#Parameters (1.General)
suffix                  autotest
calculation             scf
pseudo_dir              ../tools/PP_ORB/
ntype                   2
nbands                  6
symmetry                0

#Parameters (2.Iteration)
ecutwfc                 20
dr2                     1e-8
niter                   50

#Parameters (3.Basis)
basis_type              lcao 
gamma_only              1

#Parameters (4.Smearing)
smearing                gaussian
sigma                   0.02

#Parameters (5.Mixing)
mixing_type             pulay
mixing_beta             0.4

#Parameters (6.Deepks)
out_descriptor          1
lmax_descriptor			1
newdm		1
deepks_scf	1
model_file	model.ptg
