ATOMIC_SPECIES
O  15.999 O_ONCV_PBE-1.0.upf
H  1.008  H_ONCV_PBE-1.0.upf

LATTICE_CONSTANT
1

LATTICE_VECTORS
5.66917837283813  0.00000000000000  0.00000000000000
0.00000000000000  5.66917837283813  0.00000000000000
0.00000000000000  0.00000000000000  11.33835674567626

ATOMIC_POSITIONS
Direct

O
0
1
0.00000000000000  0.00000000000000  0.00000000000000  0  0  0

H
0
2
0.26356319124800  0.00000000000000  0.102036213339  0  0  0
-0.26356319124800  0.00000000000000  0.102036213339  0  0  0
