INPUT_PARAMETERS
#Parameters (1.General)
suffix			autotest
calculation     scf
esolver_type    sdft

nbands			100
nbands_sto      0         #execute KSDFT
pseudo_dir	../../PP_ORB
symmetry	    1
kpar            2

#Parameters (2.Iteration)
ecutwfc			20
scf_thr			1e-6
scf_nmax	    50


#Parameters (3.Basis)
basis_type		pw

#Parameters (4.Smearing)
smearing_method		fd
smearing_sigma			0.6

#Parameters (5.Mixing)
mixing_type		broyden
mixing_beta		0.4

cal_cond      1
cond_fwhm   8
cond_wcut        20
cond_dw          0.02
cond_dt          0.237464
cond_dtbatch     1
cond_nonlocal    0
