INPUT_PARAMETERS
#Parameters (1.General)
suffix			autotest
calculation     	scf
nbands			8
symmetry		1
pseudo_dir      	../../PP_ORB/

#Parameters (2.Iteration)
ecutwfc			20

#Parameters (3.Basis)
basis_type		pw

#Parameters (4.Smearing)
smearing_method		gauss
smearing_sigma		0.0074

#Parameters (5.Mixing)
mixing_type		broyden
mixing_beta		0.7
