INPUT_PARAMETERS
#Parameters	(General)
suffix              autotest
pseudo_dir	    ../../PP_ORB
orbital_dir	    ../../PP_ORB
	
nbands              8
calculation         md

#Parameters (Accuracy)
ecutwfc             20
scf_nmax            20

gamma_only          1
basis_type          lcao
ks_solver           scalapack_gvx

mixing_type         pulay
mixing_beta         0.4

smearing_method     gauss
smearing_sigma      0.001

cal_force           1
cal_stress          1

md_nstep            3
md_type             msst
md_tfirst           10
md_dt               1
md_restart          0
md_prec_level       2
init_vel            1
msst_qmass          1
msst_vel            10
