INPUT_PARAMETERS 
#Parameters (1.General)
suffix           autotest
calculation      scf
                 
#nbands			 8
symmetry         1
                 
#Parameters (2.Iteration)
ecutwfc          100
scf_thr          1e-7
scf_nmax         100
cal_force        1
cal_stress       1
#Parameters (3.Basis)
basis_type       lcao
                 
#Parameters (4.Smearing)
smearing_method  gauss
smearing_sigma   0.002
                 
#Parameters (5.Mixing)
mixing_type      broyden
mixing_beta      0.4
mixing_beta_mag  0.4
mixing_gg0       0.0
mixing_gg0_mag   0.0
gamma_only       1
ks_solver        genelpa
device           cpu
nspin            2
