ATOMIC_SPECIES
Si 1 Si_ONCV_PBE-1.0.upf
LATTICE_CONSTANT
20  // add lattice constant(a.u.)
LATTICE_VECTORS
1 0 0
0 1 0
0 0 1
ATOMIC_POSITIONS
Cartesian_angstrom  //Cartesian or Direct coordinate.
Si //Element Label
0.0     //starting magnetism
2       //number of atoms
0.0     0.0     0.0     0   0   0  // crystal coor.
0.0     0.0     2.6    0   0   0
