INPUT_PARAMETERS
#Parameters	(General)
suffix      	autotest
	
calculation 	scf

#Parameters (Accuracy)
ecutwfc			50
scf_nmax			50
scf_thr             1.0e-8

basis_type		lcao

cal_stress          1
cal_force           1

mixing_type     broyden
mixing_beta     0.7
mixing_gg0      1.5
pseudo_dir	../../PP_ORB
orbital_dir	../../PP_ORB

