INPUT_PARAMETERS
suffix                  autotest
calculation             scf

symmetry            1
ecutwfc                 20
scf_thr                 1e-07
scf_nmax                100
basis_type              pw

smearing_method         gaussian
smearing_sigma          0.020000

kspacing             0.5 1.0   1.0
pseudo_dir	../../PP_ORB
