INPUT_PARAMETERS
suffix              Si-6-2.0
latname             Si-6-2.0
atom_file           14_Si_100.stru
pseudo_dir          /home/nic/wszhang/eclipse_project/delta_dft/CIF_POT/SG15_ONCV_PBE-1.0/
kpoint_file         KPOINTS
wannier_card        INPUTw
calculation         scf
ntype               1
nspin               1
lmaxmax             2

symmetry            0
nbands             	8.0 

ecutwfc             100
dr2                 1.0e-7  // about iteration
niter               1500

smearing            gauss
sigma               0.01

mixing_type         pulay       // about charge mixing
mixing_beta         0.4
mixing_ndim         8
printe				1
