INPUT_PARAMETERS
pseudo_dir              ../../../tests/PP_ORB
ntype                   3
ecutwfc                 50
symmetry                0
pw_diag_thr             1e-10
calculation             nscf
basis_type              pw
init_chg                file
berry_phase             1
gdir                    2
