INPUT_PARAMETERS
#Parameters (1.General)
suffix                  autotest
calculation             gen_bessel
pseudo_dir              ../../PP_ORB

nbands                  6
symmetry                0

#Parameters (2.Iteration)
ecutwfc                 20
scf_thr                     1e-8
scf_nmax                   50

#Parameters (3.Basis)
basis_type              pw
gamma_only              1

#Parameters (4.Smearing)
smearing_method                gaussian
smearing_sigma                   0.1

#Parameters (5.Mixing)
mixing_type             broyden
mixing_beta             0.4

#Parameters (6.File)
deepks_out_labels          1 
bessel_descriptor_lmax     1
bessel_descriptor_rcut     2.0
