INPUT_PARAMETERS
#Parameters (1.General)
suffix			autotest
calculation     	scf
dft_functional		lda
ntype			2
nbands			6
symmetry		0

#Parameters (2.Iteration)
ecutwfc			50
dr2			1e-8
niter			50

#Parameters (3.Basis)
basis_type		lcao
gamma_only		1
force 1

deepks_out_labels	0
deepks_descriptor_lmax		2
newdm	1

#Parameters (4.Smearing)
smearing		gaussian
sigma			0.02

#Parameters (5.Mixing)
mixing_type		pulay
mixing_beta		0.4

deepks_scf	1
deepks_model	model.ptg
