INPUT_PARAMETERS

pseudo_dir              ../../../tests/PP_ORB
orbital_dir             ../../../tests/PP_ORB
ntype                   1
ecutwfc                 50
nbands                  4
smearing_method         fixed
calculation             nscf
scf_nmax                50
pw_diag_thr             1.0e-12
scf_thr                 1.0e-13
init_chg                file
symmetry                0
towannier90             1
nnkpfile                diamond.nnkp
basis_type		        pw
out_wannier_unk         0