INPUT_PARAMETERS
suffix      PbTiO3
ntype       3
#nbands      25
ecutwfc     50
scf_nmax       40
symmetry    0
scf_thr         1e-10
calculation scf
basis_type  pw
smearing_method    gaussian
smearing_sigma       0.002
mixing_beta 0.3
out_chg  1
