INPUT_PARAMETERS
#Parameters (1.General)
suffix			autotest
calculation     	md

nbands			6
symmetry		0
pseudo_dir		../../PP_ORB
orbital_dir		../../PP_ORB

#Parameters (2.Iteration)
ecutwfc			50
scf_thr			1e-6
scf_nmax			50

#Parameters (3.Basis)
basis_type		lcao
gamma_only		1
mixing_restart          1e-3
mixing_dmr              1

#Parameters (4.Smearing)
smearing_method		gaussian
smearing_sigma			0.02

#Parameters (5.Mixing)
mixing_type		broyden
mixing_beta		0.4

#Parameters (6.File)
deepks_out_labels          1 
deepks_scf		           1
deepks_model		       ../Model_ProjOrb/model_lda_pbe_18.ptg
cal_force			       1
cal_stress                 1

md_type                nvt
md_nstep               3
md_dt                  1
md_tfirst              300
md_tfreq               0.025
md_tchain              1
