INPUT_PARAMETERS
pseudo_dir              ../../../tests/PP_ORB
orbital_dir             ../../../tests/PP_ORB
ntype       		3
ecutwfc     		50
scf_nmax       		100
symmetry    		0
scf_thr         	1e-7
calculation 		scf
basis_type  		lcao
out_chg  		1
