ATOMIC_SPECIES
Pb 207.2 Pb_ONCV_PBE-1.0.upf
Ti 47.867 Ti_ONCV_PBE-1.0.upf
O 15.9994 O_ONCV_PBE-1.0.upf

NUMERICAL_ORBITAL
./Pb_gga_10au_100Ry_2s2p2d.orb
./Ti_gga_10au_100Ry_4s2p2d1f.orb
./O_gga_10au_100Ry_2s2p1d.orb

LATTICE_CONSTANT
1.889725988579

LATTICE_VECTORS
3.8369998932         0.0000000000         0.0000000000
0.0000000000         3.8369998932         0.0000000000
0.0000000000         0.0000000000         4.7870001793
	
ATOMIC_POSITIONS
Direct

Pb
0.0
1
 0.000000000         0.000000000         0.000000000 0 0 0


Ti
0.0
1
 0.500000000         0.500000000         0.555999975 0 0 0

 
O
0.0
3
 0.500000000         0.500000000         0.194999994 0 0 0
 0.000000000         0.500000000         0.671000004 0 0 0
 0.500000000         0.000000000         0.671000004 0 0 0

