INPUT_PARAMETERS
#Parameters (1.General)
suffix			autotest
calculation     scf
ntype			1
nbands			6
symmetry		1
pseudo_dir		./	
nspin			2

#Parameters (2.Iteration)
ecutwfc			20
dr2				1e-9
niter			100

#Parameters (3.Basis)
basis_type		pw
