INPUT_PARAMETERS
#Parameters	(System)
suffix                  autotest
ntype			1
nbands			4
atom_file		STRU
kpoint_file		KPT
pseudo_dir		../tools/PP_ORB/
orbital_dir		../tools/PP_ORB/
calculation             scf 		
latname			triclinic
#Parameters (PW)
ecutwfc			25.0              # Rydberg
#Parameters (electronic)
basis_type		lcao 	
dr2			1e-10

force			1
stress			1
