ATOMIC_SPECIES
H 1.008 H_ONCV_PBE-1.0.upf

NUMERICAL_ORBITAL
H_gga_8au_60Ry_2s1p.orb

LATTICE_CONSTANT
1

LATTICE_VECTORS
10 0 0
0 10 0
0 0 10

ATOMIC_POSITIONS
Cartesian    # Cartesian(Unit is LATTICE_CONSTANT)


H
0.0
2
0.00 0.00 -0.70 0 0 0
0.00 0.01 0.70 0 0 0


