INPUT_PARAMETERS
pseudo_dir	  ../../../tests/PP_ORB
ntype		  1
dft_functional    pbe
symmetry	  0
cal_force	  1
calculation       scf
ecutwfc		  60
scf_nmax	  200
scf_thr		  1.0e-7
basis_type	  pw
gamma_only        1
smearing_method	  gauss
smearing_sigma	  0.02
mixing_type       broyden
mixing_beta       0.1

#Parameters (electric field and dipole correction)
efield_flag         1
dip_cor_flag        1
efield_pos_max      0.8
efield_pos_dec      0.1
efield_amp          0.005
