ATOMIC_SPECIES
Pt 195.08 Pt_ONCV_PBE-1.0.upf

LATTICE_CONSTANT
1.8897259886

LATTICE_VECTORS
8.4359998703         0.0000000000         0.0000000000
-4.2179999352         7.3057901940         0.0000000000
0.0000000000         0.0000000000        25.1919994354

ATOMIC_POSITIONS
Cartesian    # Cartesian(Unit is LATTICE_CONSTANT)

Pt
0.0
27
     0.000000000         0.000000000         3.288052246
     1.405985941         0.811746362         1.643526123
     0.000000000         1.623492723         0.000000000
     2.811971882         0.000000000         3.287052246
     4.218042047         0.811746362         1.643526123
     2.811971882         1.623492723         0.000000000
     5.624028239         0.000000000         3.287052246
     7.030014181         0.811746362         1.643526123
     5.624027988         1.623492723         0.000000000
    -1.405985941         2.435239085         3.287052246
     0.000000000         3.246985446         1.643526123
    -1.406028053         4.058804748         0.000000000
     1.405985941         2.435239085         3.287052246
     2.812056106         3.246985446         1.643526123
     1.405943830         4.058804748         0.000000000
     4.218042298         2.435239085         3.287052246
     5.624028239         3.246985446         1.643526123
     4.217999935         4.058804748         0.000000000
    -2.812014120         4.870551327         3.287052246
    -1.406028053         5.682297471         1.643526123
    -2.812014120         6.494044050         0.000000000
    -0.000042237         4.870551327         3.287052246
     1.406028053         5.682297471         1.643526123
    -0.000042237         6.494044050         0.000000000
     2.812014120         4.870551327         3.287052246
     4.218000187         5.682297471         1.643526123
     2.812013868         6.494044050         0.000000000
