INPUT_PARAMETERS
pseudo_dir	  ../../../tests/PP_ORB
dft_functional    pbe
symmetry	  0
cal_force	  1
calculation       scf
ecutwfc		  60
scf_nmax	  200
scf_thr		  1.0e-7
basis_type	  pw
gamma_only        1
smearing_method	  gauss
smearing_sigma	  0.02
mixing_type       broyden
mixing_beta       0.1

#Parameters (Solvation Model)
imp_sol		  1
eb_k		  80
tau		  0.000010798
sigma_k		  0.6
nc_k		  0.00037

