INPUT_PARAMETERS
suffix    autotest
ntype     2
#nbands   40 

calculation   scf
ecutwfc       20
dr2           1.0e-6
niter         50
out_charge    0

#start_charge    file
#out_dos         1
#dos_sigma       0.05
#out_band        1

smearing  gaussian
sigma     0.07

#force             1
#force_thr_ev      0.01
#move_method       cg
#trust_radius_ini  0.5

mixing_type    pulay
mixing_beta    0.3

ks_solver    cg
basis_type   pw
symmetry     0
nspin        2
#newdm       1
