INPUT_PARAMETERS
#Parameters (1.General)
suffix			autotest
calculation     scf

nbands			6
symmetry		0
pseudo_dir	../../PP_ORB
orbital_dir	../../PP_ORB
gamma_only      0

#Parameters (2.Iteration)
ecutwfc			20
scf_thr				1e-5
scf_nmax			50

#Parameters (3.Basis)
basis_type		lcao

#Parameters (4.Smearing)
smearing_method		gauss
smearing_sigma			0.002

#Parameters (5.Mixing)
mixing_type		broyden
mixing_beta		0.7

out_mat_xc  1
ks_solver       scalapack_gvx

dft_functional hse
exx_real_number                         1
exx_pca_threshold                       1E-2
exx_c_threshold                         1E-2
exx_v_threshold                         1
exx_dm_threshold                        1E-2
exx_cauchy_threshold            1E-3
exx_ccp_rmesh_times                     1
exx_separate_loop                       1
exx_hybrid_step                         1