ATOMIC_SPECIES
Al 26.982 Al.PD04.PBE.UPF upf201

NUMERICAL_ORBITAL
Al_gga_10au_100Ry_3s3p2d.orb

LATTICE_CONSTANT
1.88972612546

LATTICE_VECTORS
4.83198403231 -0.389937941056 0.421696660303 #latvec1
-0.224122113303 2.94867832278 -0.221983075925 #latvec2
0.446072377462 -0.396375785848 4.82801496974 #latvec3

ATOMIC_POSITIONS
Direct

Al #label
0 #magnetism
4 #number of atoms
0.00825359188008  0.99670712136  0.00678934462388  m  1  1  1
0.506607213055  0.503316792705  0.00321624481765  m  1  1  1
0.506746323934  0.00329313381946  0.503210864168  m  1  1  1
0.00839287113151  0.496682952117  0.50678354639  m  1  1  1
