ATOMIC_SPECIES
Fe 55.845 fe_pbe_v1.5.uspp.F.UPF

LATTICE_CONSTANT
6.6

ATOMIC_POSITIONS
Direct

Fe
8
1 
0 0 0

