INPUT_PARAMETERS
#Parameters	(General)
suffix	            autotest
pseudo_dir          ../tools/PP_ORB/
ntype               2
#nbands              40
pseudo_type         upf201


calculation         scf
symmetry             0

#test_force          1
nstep               1
force_thr_ev        0.001
out_level           ie
move_method           cg
#out_charge          1
#out_band            1
#start_charge        file

smearing            gaussian
sigma             0.001
#Parameters (3.PW)
ecutwfc             20
dr2                 1e-8
niter               100

#Parameters (LCAO)
basis_type pw
ks_solver           cg
charge_extrap       second-order
out_dm             0
ethr                0.00001


mixing_type         pulay
mixing_beta         0.4
mixing_gg0          1.5

