INPUT_PARAMETERS
ntype		1
nbands		10

calculation	scf
ecutwfc		100
dr2		1.0e-8
niter		100

smearing	gaussian
sigma		0.02

mixing_type	pulay
mixing_beta	0.4

basis_type	lcao
gamma_only	0
