INPUT_PARAMETERS
suffix          autotest

nbands              6
ecutwfc             20
scf_thr                 1e-8
scf_nmax               100
gamma_only          1
calculation         scf
smearing_method			gaussian
smearing_sigma				0.001
nspin				2
basis_type			lcao
ks_solver           scalapack_gvx
pseudo_dir	../../PP_ORB
orbital_dir	../../PP_ORB
