ATOMIC_SPECIES
N		1	N_ONCV_PBE-1.0.upf
N_empty	1	N_ONCV_PBE-1.0.upf

NUMERICAL_ORBITAL
orb_N.dat
orb_N.dat

LATTICE_CONSTANT
20

LATTICE_VECTORS
1 0 0
0 1 0
0 0 1

ATOMIC_POSITIONS
Cartesian_angstrom

N
0.5
1
0 0 0.0	1 1 1

N_empty
0.5
1
0 0 1.098	1 1 1
