ATOMIC_SPECIES
H 1.000 H_ONCV_PBE-1.0.upf
F 1.000 F_ONCV_PBE-1.0.upf


NUMERICAL_ORBITAL
H_gga_8au_100Ry_2s1p.orb
F_gga_7au_100Ry_2s2p1d.orb

LATTICE_CONSTANT
1.8897268777

LATTICE_VECTORS
8.0   0.0   0.0
0.0   8.0   0.0
0.0   0.0   20.0

ATOMIC_POSITIONS
Cartesian

H 
0 
1	
0.000  0.000 0.000 0 0 0

F
0
1
0.000  0.000 1.00   0 0 0
