ATOMIC_SPECIES
Sn  118.710  ../tools/PP_ORB/Sn_ONCV_PBE-1.0.upf
Te  127.603  ../tools/PP_ORB/Te_ONCV_PBE-1.0.upf

NUMERICAL_ORBITAL
../tools/PP_ORB/Sn_pbe_9.0au_100Ry_2s2p2d
../tools/PP_ORB/Te_pbe_9.0au_100Ry_2s2p2d

LATTICE_CONSTANT
8.7826087

LATTICE_PARAMETERS
0.981704692 3.5126991

ATOMIC_POSITIONS
Direct

Sn #label
0 #magnetism
1 #number of atoms
0.5493  0.5000000000000000  0.2 1 1 1

Te #label
0 #magnetism
1 #number of atoms
0.0000000000000000  0.0000000000000000  0.2 1 1 1

