INPUT_PARAMETERS
#Parameters	(General)
suffix          autotest
pseudo_dir	../../PP_ORB
orbital_dir	../../PP_ORB
	
nbands			8
calculation     md
read_file_dir   ./

#Parameters (Accuracy)
ecutwfc			20
scf_nmax			20

scf_thr 1E-7
basis_type		lcao
md_nstep           3

cal_stress          1
stress_thr      1e-6
cal_force           1
force_thr_ev    1.0e-3

ks_solver       genelpa
mixing_type     broyden
mixing_beta     0.7

md_tchain        4
md_type          nvt
md_tfirst        10
md_dt            1
md_restart         0
init_vel         1

gamma_only 1

