num_bands         =   12
num_wann          =   8 

Begin Projections
C:s;px;py;pz
End Projections  

dis_num_iter      = 5000
num_iter          = 5000
num_print_cycles  = 50 

wannier_plot=.true.
wannier_plot_supercell = 3
wvfn_formatted = .true.

guiding_centres = .true.

begin atoms_frac
C 0.875  0.875  0.875
C 0.125  0.125  0.125
end atoms_frac

begin unit_cell_cart
-1.613990   0.000000   1.613990
 0.000000   1.613990   1.613990
-1.613990   1.613990   0.000000
end unit_cell_cart

mp_grid : 4 4 4

begin kpoints
0.0000  0.0000   0.0000   0.0156250
0.0000  0.2500   0.0000   0.0156250
0.0000  0.5000   0.0000   0.0156250
0.0000  0.7500   0.0000   0.0156250
0.2500  0.0000   0.0000   0.0156250
0.2500  0.2500   0.0000   0.0156250
0.2500  0.5000   0.0000   0.0156250
0.2500  0.7500   0.0000   0.0156250
0.5000  0.0000   0.0000   0.0156250
0.5000  0.2500   0.0000   0.0156250
0.5000  0.5000   0.0000   0.0156250
0.5000  0.7500   0.0000   0.0156250
0.7500  0.0000   0.0000   0.0156250
0.7500  0.2500   0.0000   0.0156250
0.7500  0.5000   0.0000   0.0156250
0.7500  0.7500   0.0000   0.0156250
0.0000  0.0000   0.2500   0.0156250
0.0000  0.2500   0.2500   0.0156250
0.0000  0.5000   0.2500   0.0156250
0.0000  0.7500   0.2500   0.0156250
0.2500  0.0000   0.2500   0.0156250
0.2500  0.2500   0.2500   0.0156250
0.2500  0.5000   0.2500   0.0156250
0.2500  0.7500   0.2500   0.0156250
0.5000  0.0000   0.2500   0.0156250
0.5000  0.2500   0.2500   0.0156250
0.5000  0.5000   0.2500   0.0156250
0.5000  0.7500   0.2500   0.0156250
0.7500  0.0000   0.2500   0.0156250
0.7500  0.2500   0.2500   0.0156250
0.7500  0.5000   0.2500   0.0156250
0.7500  0.7500   0.2500   0.0156250
0.0000  0.0000   0.5000   0.0156250
0.0000  0.2500   0.5000   0.0156250
0.0000  0.5000   0.5000   0.0156250
0.0000  0.7500   0.5000   0.0156250
0.2500  0.0000   0.5000   0.0156250
0.2500  0.2500   0.5000   0.0156250
0.2500  0.5000   0.5000   0.0156250
0.2500  0.7500   0.5000   0.0156250
0.5000  0.0000   0.5000   0.0156250
0.5000  0.2500   0.5000   0.0156250
0.5000  0.5000   0.5000   0.0156250
0.5000  0.7500   0.5000   0.0156250
0.7500  0.0000   0.5000   0.0156250
0.7500  0.2500   0.5000   0.0156250
0.7500  0.5000   0.5000   0.0156250
0.7500  0.7500   0.5000   0.0156250
0.0000  0.0000   0.7500   0.0156250
0.0000  0.2500   0.7500   0.0156250
0.0000  0.5000   0.7500   0.0156250
0.0000  0.7500   0.7500   0.0156250
0.2500  0.0000   0.7500   0.0156250
0.2500  0.2500   0.7500   0.0156250
0.2500  0.5000   0.7500   0.0156250
0.2500  0.7500   0.7500   0.0156250
0.5000  0.0000   0.7500   0.0156250
0.5000  0.2500   0.7500   0.0156250
0.5000  0.5000   0.7500   0.0156250
0.5000  0.7500   0.7500   0.0156250
0.7500  0.0000   0.7500   0.0156250
0.7500  0.2500   0.7500   0.0156250
0.7500  0.5000   0.7500   0.0156250
0.7500  0.7500   0.7500   0.0156250
end kpoints
