INPUT_PARAMETERS

pseudo_dir              ../../../tests/PP_ORB
orbital_dir             ../../../tests/PP_ORB
ntype                   1
ecutwfc                 50
nbands                  12
calculation             nscf
scf_nmax                50
pw_diag_thr             1.0e-12
scf_thr                 1.0e-15
init_chg                file
symmetry                0
towannier90             1
wannier_method 1
nnkpfile                diamond.nnkp
basis_type		lcao

