INPUT_PARAMETERS
#Parameters (1.General)
suffix			autotest
calculation     nscf
esolver_type    sdft
method_sto      1

nbands			10
nbands_sto		all
nche_sto		120
emax_sto		0
emin_sto		0
seed_sto        20000
pseudo_dir	../../PP_ORB
symmetry	    1
kpar            2
bndpar          2

#Parameters (2.Iteration)
ecutwfc			20
read_file_dir 		./
init_chg        file



#Parameters (3.Basis)
basis_type		pw

#Parameters (4.Smearing)
smearing_method		fd
smearing_sigma			0.6

#Parameters (5.Mixing)
mixing_type		broyden
mixing_beta		0.4
mixing_gg0      0.0

out_dos          1
dos_emin_ev      -20
dos_emax_ev		 100
dos_edelta_ev    0.1
dos_sigma        4
dos_nche         240

