INPUT_PARAMETERS
#Parameters (1.General)
suffix			autotest
calculation     sto-scf
method_sto      1
ntype			1
nbands			10
nbands_sto		0
nche_sto		120
emax_sto		0
emin_sto		0
seed_sto        20000
pseudo_dir	../../PP_ORB
symmetry	    1
kpar            2
bndpar          2

#Parameters (2.Iteration)
ecutwfc			20
scf_thr			1e-6
scf_nmax	    0
init_chg        file



#Parameters (3.Basis)
basis_type		pw

#Parameters (4.Smearing)
smearing_method		fd
smearing_sigma			0.6

#Parameters (5.Mixing)
mixing_type		broyden
mixing_beta		0.4

out_dos          1
dos_emin_ev      -20
dos_emax_ev		 100
dos_edelta_ev    0.1
dos_sigma        4
dos_nche         240

