ATOMIC_SPECIES
Si 1.000 Si_ONCV_PBE-1.0.upf 	#Element, Mass, Pseudopotential

LATTICE_CONSTANT
10.21  			#Lattice constant

LATTICE_VECTORS
0.5 0.5 0.0 		#Lattice vector 1
0.5 0.0 0.5 		#Lattice vector 2
0.0 0.5 0.5 		#Lattice vector 3

ATOMIC_POSITIONS
Cartesian 		#Cartesian(Unit is LATTICE_CONSTANT)
Si 			#Name of element	
0.0			#Magnetic for this element.
2			#Number of atoms
0.00 0.00 0.00 0 0 0	#x,y,z, move_x, move_y, move_z
0.25 0.25 0.25 0 0 0
