INPUT_PARAMETERS
#Parameters (1.General)
suffix			autotest
calculation     scf

nbands			35
symmetry		1
pseudo_dir	../../PP_ORB
orbital_dir	../../PP_ORB

#Parameters (2.Iteration)
ecutwfc			20
scf_thr				1e-8
scf_nmax			100


#Parameters (3.Basis)
basis_type		lcao

#Parameters (4.Smearing)
smearing_method		fd
smearing_sigma			0.002

#Parameters (5.Mixing)
mixing_type	    broyden
mixing_beta		0.6
mixing_gg0      2