num_bands         =   12
num_wann          =   8 

dis_win_min       =  -7.2
dis_win_max       =  45
dis_froz_min      =  -7.2
dis_froz_max      =  20
dis_num_iter      =  200

begin projections
C:s;px;py;pz
end projections 

wannier_plot=.false.
wannier_plot_supercell = 3
wvfn_formatted = .true.

guiding_centres = .true.

begin atoms_frac
C 0.875  0.875  0.875
C 0.125  0.125  0.125
end atoms_frac

begin unit_cell_cart
-1.613990   0.000000   1.613990
 0.000000   1.613990   1.613990
-1.613990   1.613990   0.000000
end unit_cell_cart

bands_plot = true

begin kpoint_path
G 0.0000000000  0.0000000000    0.0000000000     L 0.5000000000 0.5000000000    0.5000000000
L 0.5000000000  0.5000000000    0.5000000000     W 0.5000000000 0.2500000000    0.7500000000
W 0.5000000000  0.2500000000    0.7500000000     X 0.5000000000 0.0000000000    0.5000000000
end kpoint_path

mp_grid : 4 4 4

begin kpoints
0.0000  0.0000   0.0000   0.0156250
0.0000  0.2500   0.0000   0.0156250
0.0000  0.5000   0.0000   0.0156250
0.0000  0.7500   0.0000   0.0156250
0.2500  0.0000   0.0000   0.0156250
0.2500  0.2500   0.0000   0.0156250
0.2500  0.5000   0.0000   0.0156250
0.2500  0.7500   0.0000   0.0156250
0.5000  0.0000   0.0000   0.0156250
0.5000  0.2500   0.0000   0.0156250
0.5000  0.5000   0.0000   0.0156250
0.5000  0.7500   0.0000   0.0156250
0.7500  0.0000   0.0000   0.0156250
0.7500  0.2500   0.0000   0.0156250
0.7500  0.5000   0.0000   0.0156250
0.7500  0.7500   0.0000   0.0156250
0.0000  0.0000   0.2500   0.0156250
0.0000  0.2500   0.2500   0.0156250
0.0000  0.5000   0.2500   0.0156250
0.0000  0.7500   0.2500   0.0156250
0.2500  0.0000   0.2500   0.0156250
0.2500  0.2500   0.2500   0.0156250
0.2500  0.5000   0.2500   0.0156250
0.2500  0.7500   0.2500   0.0156250
0.5000  0.0000   0.2500   0.0156250
0.5000  0.2500   0.2500   0.0156250
0.5000  0.5000   0.2500   0.0156250
0.5000  0.7500   0.2500   0.0156250
0.7500  0.0000   0.2500   0.0156250
0.7500  0.2500   0.2500   0.0156250
0.7500  0.5000   0.2500   0.0156250
0.7500  0.7500   0.2500   0.0156250
0.0000  0.0000   0.5000   0.0156250
0.0000  0.2500   0.5000   0.0156250
0.0000  0.5000   0.5000   0.0156250
0.0000  0.7500   0.5000   0.0156250
0.2500  0.0000   0.5000   0.0156250
0.2500  0.2500   0.5000   0.0156250
0.2500  0.5000   0.5000   0.0156250
0.2500  0.7500   0.5000   0.0156250
0.5000  0.0000   0.5000   0.0156250
0.5000  0.2500   0.5000   0.0156250
0.5000  0.5000   0.5000   0.0156250
0.5000  0.7500   0.5000   0.0156250
0.7500  0.0000   0.5000   0.0156250
0.7500  0.2500   0.5000   0.0156250
0.7500  0.5000   0.5000   0.0156250
0.7500  0.7500   0.5000   0.0156250
0.0000  0.0000   0.7500   0.0156250
0.0000  0.2500   0.7500   0.0156250
0.0000  0.5000   0.7500   0.0156250
0.0000  0.7500   0.7500   0.0156250
0.2500  0.0000   0.7500   0.0156250
0.2500  0.2500   0.7500   0.0156250
0.2500  0.5000   0.7500   0.0156250
0.2500  0.7500   0.7500   0.0156250
0.5000  0.0000   0.7500   0.0156250
0.5000  0.2500   0.7500   0.0156250
0.5000  0.5000   0.7500   0.0156250
0.5000  0.7500   0.7500   0.0156250
0.7500  0.0000   0.7500   0.0156250
0.7500  0.2500   0.7500   0.0156250
0.7500  0.5000   0.7500   0.0156250
0.7500  0.7500   0.7500   0.0156250
end kpoints
