INPUT_PARAMETERS
#Parameters	(General)
pseudo_dir          ../../../tests/PP_ORB
nbands              8
calculation         scf
symmetry            1

#Parameters (3.PW)
basis_type 		pw
ecutwfc             	60
scf_thr                 1e-8
scf_nmax               	100

cal_force              1

