INPUT_PARAMETERS
#Parameters	(General)
suffix      	autotest
ntype			1	
nbands			8
calculation 	md

#Parameters (Accuracy)
ecutwfc			20
niter			50
dr2             1.0e-6

basis_type		lcao
nstep           3

stress          1
stress_thr      1e-6
force           1
force_thr_ev    1.0e-3

smearing gaussian
sigma 0.002

mixing_type     pulay
mixing_beta     0.7

md_tfirst        100

charge_extrap  second-order
