INPUT_PARAMETERS
#Parameters	(General)
suffix      	autotest
	
nbands			8
calculation 	md

#Parameters (Accuracy)
ecutwfc			20
scf_nmax			50
scf_thr             1.0e-6

basis_type		lcao
md_nstep           3

cal_stress          1
stress_thr      1e-6
cal_force           1
force_thr_ev    1.0e-3

smearing_method    gaussian
smearing_sigma   0.002
mixing_type     broyden
mixing_beta     0.7

md_tfreq        0.1
md_tfirst       10
init_vel        1

chg_extrap  second-order

read_file_dir   ./
pseudo_dir	../../PP_ORB
orbital_dir	../../PP_ORB
