INPUT_PARAMETERS
#Parameters	(System)
suffix                  autotest

nbands			4
stru_file		STRU
kpoint_file		KPT
pseudo_dir	../../PP_ORB
calculation             scf 		
latname			bct
#Parameters (PW)
ecutwfc			25.0              # Rydberg
#Parameters (electronic)
basis_type		pw 	
scf_thr			1e-10

cal_force			1
cal_stress			1
