INPUT_PARAMETERS
#Parameters	(General)
suffix              autotest
calculation         md
pseudo_dir          ../../PP_ORB

esolver_type        dp
pot_file            ../../PP_ORB/Al-SCAN.pb

cal_force           1
cal_stress          1

md_nstep            3
md_type             msst
md_dt               1
md_tfirst           200
md_dumpfreq         1
md_restartfreq      1

msst_qmass          200
msst_vel            0.028
msst_vis            0.3

init_vel            1
