ATOMIC_SPECIES
Al 26.9815

LATTICE_CONSTANT
36.9005650344

LATTICE_VECTORS
1 0 0 #latvec1
0 1 0 #latvec2
0 0 1 #latvec3

ATOMIC_POSITIONS
Cartesian

Al #label
0 #magnetism
864 #number of atoms
0  0  0  m  1  1  1  v  0.000116448153697  -3.54062829069e-05  6.37221822545e-05
0.0833333333321  0.0833333333321  0  m  1  1  1  v  6.31461715716e-05  -7.68881397243e-05  0.000126053061667
0.0833333333321  0  0.0833333333321  m  1  1  1  v  -0.000203773691434  5.08681990052e-05  -5.02990480666e-05
0  0.0833333333321  0.0833333333321  m  1  1  1  v  0.00024862569861  -0.000253289379344  2.04134042994e-05
0  0  0.166666666668  m  1  1  1  v  8.86312919936e-05  0.000160542135344  -0.000121839904824
0.0833333333321  0.0833333333321  0.166666666668  m  1  1  1  v  2.55030351768e-05  -3.68630188311e-05  2.89192521276e-05
0.0833333333321  0  0.25  m  1  1  1  v  -0.000135330676077  -3.26957881398e-05  3.15103467938e-07
0  0.0833333333321  0.25  m  1  1  1  v  0.000131365976691  9.92067819339e-05  -0.00017808361164
0  0  0.333333333332  m  1  1  1  v  0.000242204808269  4.80682058349e-05  -5.77723951678e-06
0.0833333333321  0.0833333333321  0.333333333332  m  1  1  1  v  4.4121905659e-05  -8.11582035987e-05  0.000105866881666
0.0833333333321  0  0.416666666668  m  1  1  1  v  8.08975134055e-06  0.000179697573091  -3.08365384266e-05
0  0.0833333333321  0.416666666668  m  1  1  1  v  9.1833557461e-05  -0.000146596787577  -0.00010735571447
0  0  0.5  m  1  1  1  v  -3.22471391916e-06  -9.3952958183e-05  -0.000125172025128
0.0833333333321  0.0833333333321  0.5  m  1  1  1  v  5.43488859777e-05  9.26514982387e-05  -3.9514375412e-05
0.0833333333321  0  0.583333333332  m  1  1  1  v  -1.72205236634e-05  -7.76013392799e-05  -0.000197889283717
0  0.0833333333321  0.583333333332  m  1  1  1  v  2.35055531788e-05  -6.88505519224e-05  0.000146146851725
0  0  0.666666666668  m  1  1  1  v  8.24349574336e-06  0.00023910883879  -6.86943040331e-07
0.0833333333321  0.0833333333321  0.666666666668  m  1  1  1  v  -7.29739148642e-05  -8.2829068001e-06  7.75875328916e-05
0.0833333333321  0  0.75  m  1  1  1  v  2.67526553363e-05  2.2169547702e-05  -0.00010584100116
0  0.0833333333321  0.75  m  1  1  1  v  0.000102101747025  0.000152623866719  -0.0001603803243
0  0  0.833333333332  m  1  1  1  v  4.7833805611e-05  -9.80315554023e-05  -2.30746967467e-05
0.0833333333321  0.0833333333321  0.833333333332  m  1  1  1  v  0.000105015190123  0.00011381375035  -6.18267190536e-05
0.0833333333321  0  0.916666666668  m  1  1  1  v  -3.67663227516e-05  4.34368642812e-05  -0.000126525595765
0  0.0833333333321  0.916666666668  m  1  1  1  v  0.000142180196731  6.3476234833e-05  6.56583208542e-06
0  0.166666666668  0  m  1  1  1  v  3.55454018482e-05  0.000106028823803  -1.76156349167e-05
0.0833333333321  0.25  0  m  1  1  1  v  7.87802908983e-05  -4.10026410404e-05  0.000133340556042
0.0833333333321  0.166666666668  0.0833333333321  m  1  1  1  v  2.05617065626e-05  7.03903559025e-05  -1.54906861875e-05
0  0.25  0.0833333333321  m  1  1  1  v  -0.000178782761903  0.000223159066924  -0.00011092535776
0  0.166666666668  0.166666666668  m  1  1  1  v  8.10662139324e-05  -0.000161877860667  0.000109354252214
0.0833333333321  0.25  0.166666666668  m  1  1  1  v  -8.63742675588e-05  -2.91567666145e-05  -0.000174703850293
0.0833333333321  0.166666666668  0.25  m  1  1  1  v  -0.000103692127071  -6.39065662929e-05  0.00015527256768
0  0.25  0.25  m  1  1  1  v  -0.000246525607455  4.57018864069e-07  0.000177568317036
0  0.166666666668  0.333333333332  m  1  1  1  v  0.00016460857009  -0.000106521902131  0.000146373829899
0.0833333333321  0.25  0.333333333332  m  1  1  1  v  -8.89777624268e-05  -8.27149824447e-05  -0.00011738908249
0.0833333333321  0.166666666668  0.416666666668  m  1  1  1  v  4.651332595e-05  -0.000165354308506  -8.46665598476e-05
0  0.25  0.416666666668  m  1  1  1  v  4.38161293614e-05  -3.6000629604e-05  2.60189723653e-05
0  0.166666666668  0.5  m  1  1  1  v  -8.78281527631e-05  6.0905845576e-05  -7.99336469981e-05
0.0833333333321  0.25  0.5  m  1  1  1  v  -5.74563792448e-06  -7.23844107904e-05  -6.60926798954e-05
0.0833333333321  0.166666666668  0.583333333332  m  1  1  1  v  8.49652076711e-05  7.73381098343e-05  3.52273313522e-06
0  0.25  0.583333333332  m  1  1  1  v  1.62430569303e-05  8.14282092937e-05  0.000139804759582
0  0.166666666668  0.666666666668  m  1  1  1  v  -4.90319437462e-06  -8.92371589498e-05  -2.30306842546e-05
0.0833333333321  0.25  0.666666666668  m  1  1  1  v  0.000139625551333  5.32210033238e-05  0.000167743610394
0.0833333333321  0.166666666668  0.75  m  1  1  1  v  3.12731207765e-05  -0.000134652233555  -0.000131674824276
0  0.25  0.75  m  1  1  1  v  -5.00660640143e-05  -0.000228711990204  8.15006612676e-05
0  0.166666666668  0.833333333332  m  1  1  1  v  0.000242933637043  -0.000146978756636  2.86067364164e-05
0.0833333333321  0.25  0.833333333332  m  1  1  1  v  -8.1265992071e-05  2.5454532464e-05  0.000177039834714
0.0833333333321  0.166666666668  0.916666666668  m  1  1  1  v  1.37001897642e-05  0.000116753954262  0.00014807111057
0  0.25  0.916666666668  m  1  1  1  v  7.02998713549e-05  1.15349861417e-05  1.94037641559e-06
0  0.333333333332  0  m  1  1  1  v  0.000227560178469  -2.40794335521e-07  -4.45135171096e-05
0.0833333333321  0.416666666668  0  m  1  1  1  v  2.94009575082e-05  8.81031830354e-05  -0.000147183552737
0.0833333333321  0.333333333332  0.0833333333321  m  1  1  1  v  6.03238334726e-05  -0.000142110613667  0.000125448974097
0  0.416666666668  0.0833333333321  m  1  1  1  v  -0.000128479445936  -7.80098008622e-05  -0.000133140889732
0  0.333333333332  0.166666666668  m  1  1  1  v  -8.22413477856e-05  2.64280065736e-05  -0.000139968745565
0.0833333333321  0.416666666668  0.166666666668  m  1  1  1  v  6.44320100606e-05  4.8910068724e-06  4.96492509946e-05
0.0833333333321  0.333333333332  0.25  m  1  1  1  v  -0.000207336250378  4.51515523529e-05  3.31986855795e-05
0  0.416666666668  0.25  m  1  1  1  v  -7.68150652062e-05  -8.17004716096e-05  0.000271925662301
0  0.333333333332  0.333333333332  m  1  1  1  v  6.58927071936e-05  -4.66109635945e-06  -5.44791185217e-05
0.0833333333321  0.416666666668  0.333333333332  m  1  1  1  v  9.56587506774e-05  -0.000187429132028  0.000116309342268
0.0833333333321  0.333333333332  0.416666666668  m  1  1  1  v  6.11522378439e-05  -5.26510381096e-05  0.00022482069394
0  0.416666666668  0.416666666668  m  1  1  1  v  -3.16891679054e-05  -1.65433243842e-05  -0.000223097646137
0  0.333333333332  0.5  m  1  1  1  v  5.59165541325e-05  -9.40435710205e-05  8.08122950403e-06
0.0833333333321  0.416666666668  0.5  m  1  1  1  v  -5.88495063212e-05  -8.00902755064e-05  0.000185749386517
0.0833333333321  0.333333333332  0.583333333332  m  1  1  1  v  0.000150569447815  0.000130202619739  -6.38688243266e-05
0  0.416666666668  0.583333333332  m  1  1  1  v  -0.000130685885132  0.000157673615261  0.000174454675929
0  0.333333333332  0.666666666668  m  1  1  1  v  0.000125638752897  -9.67618550119e-05  6.84130328216e-05
0.0833333333321  0.416666666668  0.666666666668  m  1  1  1  v  -0.000100341167677  6.37130713988e-05  2.13122118801e-05
0.0833333333321  0.333333333332  0.75  m  1  1  1  v  8.05713889502e-05  -0.000138894295959  2.67448352996e-06
0  0.416666666668  0.75  m  1  1  1  v  -0.000107557737446  -3.69357562328e-05  5.89012755457e-05
0  0.333333333332  0.833333333332  m  1  1  1  v  2.22263062847e-05  -6.52803495428e-05  -9.84446460807e-05
0.0833333333321  0.416666666668  0.833333333332  m  1  1  1  v  -4.26053434174e-05  0.000174991080364  0.000203199120873
0.0833333333321  0.333333333332  0.916666666668  m  1  1  1  v  0.000100927802596  -0.000136205201992  0.000103150399905
0  0.416666666668  0.916666666668  m  1  1  1  v  -9.23869852883e-05  -6.03430235214e-05  -0.00012159510678
0  0.5  0  m  1  1  1  v  0.000101891684146  -5.36113677128e-05  -0.000154061950091
0.0833333333321  0.583333333332  0  m  1  1  1  v  -3.97026304088e-05  0.000119642933853  8.21271261792e-05
0.0833333333321  0.5  0.0833333333321  m  1  1  1  v  -9.30215436207e-05  4.46804342363e-05  -6.8546312273e-05
0  0.583333333332  0.0833333333321  m  1  1  1  v  0.000140557688051  4.87771682756e-05  -4.20147724574e-05
0  0.5  0.166666666668  m  1  1  1  v  0.000151470163022  2.99619402329e-05  -3.69243633604e-05
0.0833333333321  0.583333333332  0.166666666668  m  1  1  1  v  5.431460171e-05  -3.90340056442e-06  0.000305096135404
0.0833333333321  0.5  0.25  m  1  1  1  v  -9.50902680756e-05  -5.38265263517e-05  0.00012201031504
0  0.583333333332  0.25  m  1  1  1  v  -1.20033084907e-05  -1.02952154988e-05  0.000128872043168
0  0.5  0.333333333332  m  1  1  1  v  -1.34208803366e-05  -0.00020758636205  -0.000113150026291
0.0833333333321  0.583333333332  0.333333333332  m  1  1  1  v  5.29448203263e-05  5.16894512885e-05  -8.12500146615e-05
0.0833333333321  0.5  0.416666666668  m  1  1  1  v  0.000273872333451  -1.7165359517e-05  8.1111502165e-05
0  0.583333333332  0.416666666668  m  1  1  1  v  4.77895200995e-05  -6.52181060669e-05  -6.45557088097e-05
0  0.5  0.5  m  1  1  1  v  -9.81830092687e-06  -0.000115563420453  -0.000111469818713
0.0833333333321  0.583333333332  0.5  m  1  1  1  v  -5.04073949105e-05  -1.88873445565e-05  5.05118223378e-05
0.0833333333321  0.5  0.583333333332  m  1  1  1  v  7.71677266894e-05  2.95124599095e-05  4.03469273285e-05
0  0.583333333332  0.583333333332  m  1  1  1  v  3.35237132017e-05  -2.01173473833e-06  -0.000243116470824
0  0.5  0.666666666668  m  1  1  1  v  -0.000132349269171  0.00018851850679  6.92355990076e-05
0.0833333333321  0.583333333332  0.666666666668  m  1  1  1  v  -0.000173844176988  -8.54581583026e-05  2.83987979813e-05
0.0833333333321  0.5  0.75  m  1  1  1  v  -0.000110800438828  -0.000153819467332  -3.52638059452e-05
0  0.583333333332  0.75  m  1  1  1  v  -8.26124448842e-05  -9.62787696738e-06  7.43417968513e-05
0  0.5  0.833333333332  m  1  1  1  v  5.4044032604e-05  -0.000174274838073  7.70992064126e-05
0.0833333333321  0.583333333332  0.833333333332  m  1  1  1  v  0.000126114567858  -1.44070747421e-06  -0.000143850229107
0.0833333333321  0.5  0.916666666668  m  1  1  1  v  9.0392074517e-05  3.63755971982e-05  4.96710369627e-06
0  0.583333333332  0.916666666668  m  1  1  1  v  -0.000174582364224  0.000183736553793  -0.000235945611197
0  0.666666666668  0  m  1  1  1  v  0.000121147696686  -3.81217179853e-05  -0.000134676823801
0.0833333333321  0.75  0  m  1  1  1  v  -9.75648047876e-05  0.000156517946154  8.73605370001e-05
0.0833333333321  0.666666666668  0.0833333333321  m  1  1  1  v  6.97957676061e-05  8.03156296968e-05  -4.42060100851e-05
0  0.75  0.0833333333321  m  1  1  1  v  -8.24803301478e-05  8.04666105316e-05  4.13919198872e-05
0  0.666666666668  0.166666666668  m  1  1  1  v  -7.94226124269e-05  -4.25880765175e-06  -0.000171174756362
0.0833333333321  0.75  0.166666666668  m  1  1  1  v  -2.43543944024e-05  -8.87215012656e-05  -3.20646878815e-05
0.0833333333321  0.666666666668  0.25  m  1  1  1  v  -0.000155692804319  0.000119637230666  2.37126604097e-05
0  0.75  0.25  m  1  1  1  v  -4.36275617085e-05  -2.16733075657e-05  0.000163163167904
0  0.666666666668  0.333333333332  m  1  1  1  v  0.000197829190064  -5.83062418236e-05  -0.000114074343692
0.0833333333321  0.75  0.333333333332  m  1  1  1  v  1.63028144625e-05  0.000285926910248  0.00010227790139
0.0833333333321  0.666666666668  0.416666666668  m  1  1  1  v  0.000124724042818  -0.000191139628876  -4.29464697582e-05
0  0.75  0.416666666668  m  1  1  1  v  6.59120549026e-05  -6.62567858595e-06  -0.000149965552571
0  0.666666666668  0.5  m  1  1  1  v  0.000259448278432  6.67236767756e-05  0.00018635518113
0.0833333333321  0.75  0.5  m  1  1  1  v  0.00014547056844  -5.40879805078e-05  6.6445883768e-05
0.0833333333321  0.666666666668  0.583333333332  m  1  1  1  v  -2.09630034739e-05  -0.000170804984251  9.08998471923e-05
0  0.75  0.583333333332  m  1  1  1  v  -7.07744017311e-05  -3.31661087116e-05  9.24730146625e-05
0  0.666666666668  0.666666666668  m  1  1  1  v  -6.89292848156e-05  0.000124105986769  5.2676730697e-06
0.0833333333321  0.75  0.666666666668  m  1  1  1  v  -3.94188440391e-05  -7.82295658715e-05  8.88908632917e-05
0.0833333333321  0.666666666668  0.75  m  1  1  1  v  3.63510464664e-05  0.000125604153066  -8.50766204462e-05
0  0.75  0.75  m  1  1  1  v  -0.000125731803032  -0.000136859441177  4.726771626e-05
0  0.666666666668  0.833333333332  m  1  1  1  v  -9.1051627457e-05  4.02025604925e-05  9.83650322341e-05
0.0833333333321  0.75  0.833333333332  m  1  1  1  v  7.10531639125e-05  -0.00014211410262  -5.31192321918e-05
0.0833333333321  0.666666666668  0.916666666668  m  1  1  1  v  -0.000215566847159  -7.01695951087e-05  -0.000157620419131
0  0.75  0.916666666668  m  1  1  1  v  -7.41534929241e-05  1.66070052113e-05  -0.000141242581126
0  0.833333333332  0  m  1  1  1  v  -5.4539754243e-06  -3.05241543069e-05  -0.000173451188378
0.0833333333321  0.916666666668  0  m  1  1  1  v  -0.000175009080984  -9.65086030119e-05  0.00011714637704
0.0833333333321  0.833333333332  0.0833333333321  m  1  1  1  v  -0.000154330562804  9.422330359e-05  6.40704166861e-06
0  0.916666666668  0.0833333333321  m  1  1  1  v  8.25454982926e-05  7.00117900818e-05  0.000105481091863
0  0.833333333332  0.166666666668  m  1  1  1  v  0.000118208446054  -0.000117593718975  8.06947557743e-06
0.0833333333321  0.916666666668  0.166666666668  m  1  1  1  v  0.000127551751402  0.000147540950436  0.000168292216186
0.0833333333321  0.833333333332  0.25  m  1  1  1  v  4.30883848253e-05  -0.000277586004925  -0.000102921324934
0  0.916666666668  0.25  m  1  1  1  v  0.000146040761395  0.000119885028139  6.34084787225e-05
0  0.833333333332  0.333333333332  m  1  1  1  v  -5.71564385502e-05  2.39928997697e-05  -0.000139196680655
0.0833333333321  0.916666666668  0.333333333332  m  1  1  1  v  4.17294911151e-05  0.000202401834479  6.22546131666e-05
0.0833333333321  0.833333333332  0.416666666668  m  1  1  1  v  -0.000109008919177  -0.000118347700342  3.99192410343e-05
0  0.916666666668  0.416666666668  m  1  1  1  v  9.41386795249e-05  -0.000114320731163  -6.37510330401e-05
0  0.833333333332  0.5  m  1  1  1  v  3.02611550301e-05  9.3375932332e-05  0.000117336008499
0.0833333333321  0.916666666668  0.5  m  1  1  1  v  -0.000158457989475  1.80193732463e-05  -1.67595544793e-05
0.0833333333321  0.833333333332  0.583333333332  m  1  1  1  v  -0.000148282334662  5.05359395845e-06  0.000103006146218
0  0.916666666668  0.583333333332  m  1  1  1  v  4.83455547459e-05  -8.67959717864e-05  0.00017164920253
0  0.833333333332  0.666666666668  m  1  1  1  v  0.00011267833763  1.93291823933e-05  6.85753467878e-06
0.0833333333321  0.916666666668  0.666666666668  m  1  1  1  v  1.21994169093e-05  1.34801294185e-05  7.77599295154e-05
0.0833333333321  0.833333333332  0.75  m  1  1  1  v  -4.52282861678e-05  0.000340823488662  0.000135577800671
0  0.916666666668  0.75  m  1  1  1  v  3.29490341224e-05  5.59897947357e-05  -2.61210847196e-05
0  0.833333333332  0.833333333332  m  1  1  1  v  0.000103267145103  3.04764450303e-05  7.23742042394e-05
0.0833333333321  0.916666666668  0.833333333332  m  1  1  1  v  0.000136382529869  7.51390242667e-05  7.14948702091e-05
0.0833333333321  0.833333333332  0.916666666668  m  1  1  1  v  -0.000177198528896  7.75055289699e-05  -1.76853857257e-05
0  0.916666666668  0.916666666668  m  1  1  1  v  -0.000152298843084  3.92439298055e-05  3.89242769613e-05
0.166666666668  0  0  m  1  1  1  v  8.41837617117e-05  4.48793558578e-05  -0.000161280925157
0.25  0.0833333333321  0  m  1  1  1  v  0.000190545433268  0.000132097548428  0.000187953460344
0.25  0  0.0833333333321  m  1  1  1  v  5.14729162739e-06  -0.000128610684243  3.72510672289e-06
0.166666666668  0.0833333333321  0.0833333333321  m  1  1  1  v  -6.12255213309e-05  0.00021829102033  1.43396157095e-05
0.166666666668  0  0.166666666668  m  1  1  1  v  0.000134743462909  1.01709699089e-05  -0.000119225225675
0.25  0.0833333333321  0.166666666668  m  1  1  1  v  -1.23577232268e-05  5.30484400068e-06  -7.71957601898e-05
0.25  0  0.25  m  1  1  1  v  0.000125114852649  -4.56880833222e-05  0.000232167234287
0.166666666668  0.0833333333321  0.25  m  1  1  1  v  -9.18600716758e-05  -0.000118835534496  -3.49566674859e-05
0.166666666668  0  0.333333333332  m  1  1  1  v  -0.000176165607539  -5.78286563705e-05  2.94154180606e-05
0.25  0.0833333333321  0.333333333332  m  1  1  1  v  0.000136957766421  0.00024615377688  -0.000161252715642
0.25  0  0.416666666668  m  1  1  1  v  -1.03163324476e-05  2.46961159786e-05  0.000187652707518
0.166666666668  0.0833333333321  0.416666666668  m  1  1  1  v  0.000123818366164  -7.39074413241e-05  -8.33969644942e-05
0.166666666668  0  0.5  m  1  1  1  v  1.37601610752e-05  7.88122613988e-05  0.000185980026251
0.25  0.0833333333321  0.5  m  1  1  1  v  -3.91786358191e-05  -1.91125399758e-05  0.000124845891179
0.25  0  0.583333333332  m  1  1  1  v  2.8463897982e-05  2.89538571137e-05  -0.000234205581708
0.166666666668  0.0833333333321  0.583333333332  m  1  1  1  v  4.12356067414e-05  -0.000167118990606  -1.87006482248e-05
0.166666666668  0  0.666666666668  m  1  1  1  v  6.30183924817e-05  -1.79201454536e-06  -0.000155377001296
0.25  0.0833333333321  0.666666666668  m  1  1  1  v  -2.93007999498e-05  8.67593999917e-05  7.39710438867e-05
0.25  0  0.75  m  1  1  1  v  3.73888432362e-05  -2.43421593109e-05  -0.000195175717405
0.166666666668  0.0833333333321  0.75  m  1  1  1  v  -0.000119730053531  0.000230506922458  0.00019815624341
0.166666666668  0  0.833333333332  m  1  1  1  v  4.38217430957e-05  -0.000130836347744  -4.45892664556e-05
0.25  0.0833333333321  0.833333333332  m  1  1  1  v  -0.000260323566168  3.06589683389e-05  6.80533317676e-05
0.25  0  0.916666666668  m  1  1  1  v  -0.000156959243037  5.80089725469e-05  -6.22498710435e-05
0.166666666668  0.0833333333321  0.916666666668  m  1  1  1  v  -0.0001455137409  0.000200388399417  0.000119408888292
0.166666666668  0.166666666668  0  m  1  1  1  v  0.000180137341173  0.000107051358147  -8.13113766789e-05
0.25  0.25  0  m  1  1  1  v  1.16875439606e-06  4.68858194362e-05  -0.000179963756085
0.25  0.166666666668  0.0833333333321  m  1  1  1  v  4.94001124845e-05  0.00016045358148  -0.000148504374886
0.166666666668  0.25  0.0833333333321  m  1  1  1  v  -3.21788842258e-05  -3.16638833744e-06  0.000158863761053
0.166666666668  0.166666666668  0.166666666668  m  1  1  1  v  1.55506279914e-06  4.01971971381e-05  -9.55599304001e-05
0.25  0.25  0.166666666668  m  1  1  1  v  -6.37414084972e-05  0.000101642185197  -3.93996737773e-05
0.25  0.166666666668  0.25  m  1  1  1  v  3.8495661335e-05  3.33169367271e-05  -2.62772166974e-05
0.166666666668  0.25  0.25  m  1  1  1  v  -0.000208513439737  0.000112769297195  3.17096477983e-05
0.166666666668  0.166666666668  0.333333333332  m  1  1  1  v  1.28493587787e-05  4.67592346595e-05  -0.000100897695412
0.25  0.25  0.333333333332  m  1  1  1  v  -7.54037566493e-05  -5.33523144743e-05  -5.59215709612e-05
0.25  0.166666666668  0.416666666668  m  1  1  1  v  4.01827259013e-05  -0.000123509235001  -5.6301977092e-05
0.166666666668  0.25  0.416666666668  m  1  1  1  v  -4.6755651451e-05  -5.7522607177e-05  0.000233127938217
0.166666666668  0.166666666668  0.5  m  1  1  1  v  1.06147930178e-05  -7.14234898558e-05  -0.000286356934316
0.25  0.25  0.5  m  1  1  1  v  -1.88031422751e-05  -5.70457033612e-05  -0.000203008887844
0.25  0.166666666668  0.583333333332  m  1  1  1  v  -2.99223274523e-05  3.67933400504e-05  2.69714102324e-05
0.166666666668  0.25  0.583333333332  m  1  1  1  v  -0.000159047172057  -5.17845020448e-05  -1.31718322442e-05
0.166666666668  0.166666666668  0.666666666668  m  1  1  1  v  7.21976462183e-05  6.94797277798e-05  -6.59740526726e-05
0.25  0.25  0.666666666668  m  1  1  1  v  -6.26452130705e-06  -0.000119898276044  6.17904438705e-05
0.25  0.166666666668  0.75  m  1  1  1  v  0.000127565713686  -0.000114488439641  8.56889856279e-05
0.166666666668  0.25  0.75  m  1  1  1  v  2.48384856556e-05  -1.26837372923e-05  -5.14057217327e-05
0.166666666668  0.166666666668  0.833333333332  m  1  1  1  v  5.96510673266e-05  8.21336849315e-05  0.000126151217243
0.25  0.25  0.833333333332  m  1  1  1  v  0.000110761809777  7.34769626473e-05  -3.73671988344e-05
0.25  0.166666666668  0.916666666668  m  1  1  1  v  0.000107231396703  -8.96559640507e-05  5.26876447076e-05
0.166666666668  0.25  0.916666666668  m  1  1  1  v  -6.73854374779e-05  1.74150974575e-05  -7.25124615692e-05
0.166666666668  0.333333333332  0  m  1  1  1  v  -5.38665615086e-05  -5.96469560472e-05  9.33309386315e-06
0.25  0.416666666668  0  m  1  1  1  v  -8.06882807955e-05  -2.04852022401e-05  -0.000194579422818
0.25  0.333333333332  0.0833333333321  m  1  1  1  v  2.60168169204e-05  -0.000130970060883  0.000282256423162
0.166666666668  0.416666666668  0.0833333333321  m  1  1  1  v  -8.96695447957e-05  9.56307356466e-05  0.000280190016952
0.166666666668  0.333333333332  0.166666666668  m  1  1  1  v  7.44618612089e-05  -9.67406843544e-05  -0.000159073259755
0.25  0.416666666668  0.166666666668  m  1  1  1  v  7.78915034421e-05  6.77485821328e-06  -4.46011296154e-05
0.25  0.333333333332  0.25  m  1  1  1  v  5.40923942546e-05  -1.87642905235e-05  -0.00016880013532
0.166666666668  0.416666666668  0.25  m  1  1  1  v  3.23703662653e-06  -9.08117126622e-05  -0.000189018508143
0.166666666668  0.333333333332  0.333333333332  m  1  1  1  v  0.000145292666896  0.000128409618216  -5.15081355039e-05
0.25  0.416666666668  0.333333333332  m  1  1  1  v  -0.000198733805465  0.000143655097376  -0.000120195840721
0.25  0.333333333332  0.416666666668  m  1  1  1  v  -9.47180202996e-05  8.11604321302e-05  -0.000132300493516
0.166666666668  0.416666666668  0.416666666668  m  1  1  1  v  8.72177616392e-05  0.000124847002492  2.96013293388e-05
0.166666666668  0.333333333332  0.5  m  1  1  1  v  -0.000148458982731  0.000134525854038  5.37368223905e-06
0.25  0.416666666668  0.5  m  1  1  1  v  0.000125864086066  -9.34106107534e-05  -9.9774931042e-05
0.25  0.333333333332  0.583333333332  m  1  1  1  v  -9.91645804156e-05  6.67785067057e-06  9.45435834285e-05
0.166666666668  0.416666666668  0.583333333332  m  1  1  1  v  1.9110701864e-05  1.80340992846e-05  0.000143877347481
0.166666666668  0.333333333332  0.666666666668  m  1  1  1  v  -0.000166286115502  -0.000137206652118  -2.75204088633e-05
0.25  0.416666666668  0.666666666668  m  1  1  1  v  -9.93282105707e-06  -0.000112692164309  0.000111936830151
0.25  0.333333333332  0.75  m  1  1  1  v  0.000141600260136  7.14492390335e-06  -1.21656053683e-05
0.166666666668  0.416666666668  0.75  m  1  1  1  v  -0.000101590228376  -0.000152821229566  -1.3331164852e-05
0.166666666668  0.333333333332  0.833333333332  m  1  1  1  v  -3.98295901924e-05  -1.50585159471e-05  0.000167006515051
0.25  0.416666666668  0.833333333332  m  1  1  1  v  8.12040716759e-05  1.76535274206e-05  -1.77748224346e-05
0.25  0.333333333332  0.916666666668  m  1  1  1  v  -2.64611015849e-05  0.0001866373376  5.45018158863e-05
0.166666666668  0.416666666668  0.916666666668  m  1  1  1  v  0.000169778321123  2.13984327458e-05  2.5718615536e-05
0.166666666668  0.5  0  m  1  1  1  v  -2.66561259346e-05  1.59822769789e-05  -9.53140163413e-05
0.25  0.583333333332  0  m  1  1  1  v  -0.000113882053149  0.000110915631488  -0.000101906351121
0.25  0.5  0.0833333333321  m  1  1  1  v  1.52588373259e-05  -3.4402971449e-05  -0.000124997804589
0.166666666668  0.583333333332  0.0833333333321  m  1  1  1  v  0.000136330886743  -0.000166291856792  -0.000261424327611
0.166666666668  0.5  0.166666666668  m  1  1  1  v  0.000120489456481  -0.000144728064944  2.54946507993e-05
0.25  0.583333333332  0.166666666668  m  1  1  1  v  -0.000121828365179  -7.66252429994e-05  -2.84407911239e-05
0.25  0.5  0.25  m  1  1  1  v  -0.00010895260126  4.75124414712e-05  3.91884094665e-05
0.166666666668  0.583333333332  0.25  m  1  1  1  v  -0.000164495689995  0.000234723488192  3.46008514449e-05
0.166666666668  0.5  0.333333333332  m  1  1  1  v  -2.65677013845e-05  4.43074700796e-05  3.10374393725e-05
0.25  0.583333333332  0.333333333332  m  1  1  1  v  -6.02049729403e-05  -5.99333687964e-05  -2.99460624624e-06
0.25  0.5  0.416666666668  m  1  1  1  v  -6.16873633492e-05  -0.00014624636153  -2.42062709726e-05
0.166666666668  0.583333333332  0.416666666668  m  1  1  1  v  -0.000146831053093  -0.00019941518142  -7.52011664778e-05
0.166666666668  0.5  0.5  m  1  1  1  v  -0.000129661773649  -8.59622363845e-06  0.000112780389026
0.25  0.583333333332  0.5  m  1  1  1  v  6.67505461689e-05  1.61022708796e-05  -0.000153529660589
0.25  0.5  0.583333333332  m  1  1  1  v  -0.000198887555781  0.000166426537148  0.000104012693118
0.166666666668  0.583333333332  0.583333333332  m  1  1  1  v  0.000148509769946  0.00011476893573  -0.000268330379686
0.166666666668  0.5  0.666666666668  m  1  1  1  v  0.000131550791741  3.75977622822e-05  0.00013574905231
0.25  0.583333333332  0.666666666668  m  1  1  1  v  -7.05917330629e-05  -2.30382979284e-05  -9.6005245333e-05
0.25  0.5  0.75  m  1  1  1  v  0.000128617652774  -4.68305320688e-05  -2.12788387744e-06
0.166666666668  0.583333333332  0.75  m  1  1  1  v  -4.22091499763e-06  3.54969553256e-05  2.51704984143e-05
0.166666666668  0.5  0.833333333332  m  1  1  1  v  0.0001483484348  0.000103086190029  2.90754203723e-05
0.25  0.583333333332  0.833333333332  m  1  1  1  v  0.000254249585242  1.30137317066e-05  0.000302238496473
0.25  0.5  0.916666666668  m  1  1  1  v  0.000153778179759  6.72012987154e-05  -7.87540175347e-05
0.166666666668  0.583333333332  0.916666666668  m  1  1  1  v  5.78793567792e-05  8.32109521082e-05  4.93265506113e-05
0.166666666668  0.666666666668  0  m  1  1  1  v  -0.000125352883786  6.48516872436e-05  -4.0763366852e-05
0.25  0.75  0  m  1  1  1  v  -8.46742642018e-05  -1.38045798612e-05  -0.000203303938154
0.25  0.666666666668  0.0833333333321  m  1  1  1  v  -0.00011174659337  -6.87294571971e-05  1.23396677302e-05
0.166666666668  0.75  0.0833333333321  m  1  1  1  v  3.99586647318e-05  -0.000169515226774  -7.45538178326e-07
0.166666666668  0.666666666668  0.166666666668  m  1  1  1  v  -9.53310385493e-05  -4.56934636817e-05  8.96663783886e-05
0.25  0.75  0.166666666668  m  1  1  1  v  0.000215022042128  5.73690341245e-05  -4.34828218312e-05
0.25  0.666666666668  0.25  m  1  1  1  v  0.000156585321516  0.000127020762444  4.45350172765e-05
0.166666666668  0.75  0.25  m  1  1  1  v  3.73160330218e-05  0.000155649347441  0.000192635201261
0.166666666668  0.666666666668  0.333333333332  m  1  1  1  v  7.25119133274e-05  8.88285551521e-05  -2.82928228532e-05
0.25  0.75  0.333333333332  m  1  1  1  v  -5.49562279252e-05  -0.000120002474084  -5.90615996517e-05
0.25  0.666666666668  0.416666666668  m  1  1  1  v  -0.000119690740411  -0.000231308218585  2.63921681426e-05
0.166666666668  0.75  0.416666666668  m  1  1  1  v  -9.44658706572e-05  -3.97428732267e-05  8.69310832987e-05
0.166666666668  0.666666666668  0.5  m  1  1  1  v  1.70489348905e-05  -9.34770560882e-05  8.01058308927e-05
0.25  0.75  0.5  m  1  1  1  v  6.01884627586e-05  -0.00013955609712  -0.00019350116641
0.25  0.666666666668  0.583333333332  m  1  1  1  v  -8.83912343738e-05  -0.000166595358315  1.26270310751e-05
0.166666666668  0.75  0.583333333332  m  1  1  1  v  -8.59558607572e-05  0.000104696854615  -2.21128141112e-05
0.166666666668  0.666666666668  0.666666666668  m  1  1  1  v  7.6842837247e-05  4.31849205739e-05  -0.000285342451927
0.25  0.75  0.666666666668  m  1  1  1  v  -0.000211380198953  -7.92472633231e-05  -0.000115114146708
0.25  0.666666666668  0.75  m  1  1  1  v  -0.00018175548296  5.57398334558e-05  -4.83301746281e-05
0.166666666668  0.75  0.75  m  1  1  1  v  -9.07438465032e-05  0.000191263218186  -1.997691527e-05
0.166666666668  0.666666666668  0.833333333332  m  1  1  1  v  -1.65875631622e-05  -0.000153723391952  -7.0906016702e-05
0.25  0.75  0.833333333332  m  1  1  1  v  -0.000109785345441  -6.52008435043e-05  9.55358415796e-05
0.25  0.666666666668  0.916666666668  m  1  1  1  v  0.000111786925372  0.00015460560751  4.4118697971e-05
0.166666666668  0.75  0.916666666668  m  1  1  1  v  0.000219253523755  -1.14131327698e-05  0.000139813100788
0.166666666668  0.833333333332  0  m  1  1  1  v  5.8000957069e-05  4.00317410239e-05  -4.95477561288e-05
0.25  0.916666666668  0  m  1  1  1  v  -0.000153322044538  3.29252293372e-05  -3.49580288813e-05
0.25  0.833333333332  0.0833333333321  m  1  1  1  v  0.000123872898137  -0.000131494081797  -0.0002436898695
0.166666666668  0.916666666668  0.0833333333321  m  1  1  1  v  4.14242176155e-05  -6.93367697561e-05  0.000234543470536
0.166666666668  0.833333333332  0.166666666668  m  1  1  1  v  0.000191817208617  -3.33529389932e-05  -3.34144108172e-06
0.25  0.916666666668  0.166666666668  m  1  1  1  v  -2.989375692e-05  -6.55765068206e-05  -9.73396395837e-05
0.25  0.833333333332  0.25  m  1  1  1  v  0.000197930430423  -5.62740532305e-05  -0.000142647011219
0.166666666668  0.916666666668  0.25  m  1  1  1  v  7.05427972327e-05  -0.000130112288466  -7.68167190939e-05
0.166666666668  0.833333333332  0.333333333332  m  1  1  1  v  5.02917942731e-05  -0.000302184045186  -2.15482201157e-05
0.25  0.916666666668  0.333333333332  m  1  1  1  v  -5.67460252163e-05  2.39348812719e-05  -0.000210857457048
0.25  0.833333333332  0.416666666668  m  1  1  1  v  -0.000133274109307  -5.08787364346e-05  -2.71768992906e-05
0.166666666668  0.916666666668  0.416666666668  m  1  1  1  v  0.000118947967391  7.94320913047e-05  0.000113395817034
0.166666666668  0.833333333332  0.5  m  1  1  1  v  -4.55515008743e-05  -0.000110848798144  -2.41411921875e-05