ATOMIC_SPECIES
Al 26.9815 Al_ONCV_PBE-1.0.upf

LATTICE_CONSTANT
36.900565034417355

LATTICE_VECTORS
1.000000000000    0.000000000000    0.000000000000    
0.000000000000    1.000000000000    0.000000000000    
0.000000000000    0.000000000000    1.000000000000    

ATOMIC_POSITIONS
Direct

Al
0
864
    0.000000000000	0.000000000000	0.000000000000 1 1 1
    0.083333333333	0.083333333333	0.000000000000 1 1 1
    0.083333333333	0.000000000000	0.083333333333 1 1 1
    0.000000000000	0.083333333333	0.083333333333 1 1 1
    0.000000000000	0.000000000000	0.166666666667 1 1 1
    0.083333333333	0.083333333333	0.166666666667 1 1 1
    0.083333333333	0.000000000000	0.250000000000 1 1 1
    0.000000000000	0.083333333333	0.250000000000 1 1 1
    0.000000000000	0.000000000000	0.333333333333 1 1 1
    0.083333333333	0.083333333333	0.333333333333 1 1 1
    0.083333333333	0.000000000000	0.416666666667 1 1 1
    0.000000000000	0.083333333333	0.416666666667 1 1 1
    0.000000000000	0.000000000000	0.500000000000 1 1 1
    0.083333333333	0.083333333333	0.500000000000 1 1 1
    0.083333333333	0.000000000000	0.583333333333 1 1 1
    0.000000000000	0.083333333333	0.583333333333 1 1 1
    0.000000000000	0.000000000000	0.666666666667 1 1 1
    0.083333333333	0.083333333333	0.666666666667 1 1 1
    0.083333333333	0.000000000000	0.750000000000 1 1 1
    0.000000000000	0.083333333333	0.750000000000 1 1 1
    0.000000000000	0.000000000000	0.833333333333 1 1 1
    0.083333333333	0.083333333333	0.833333333333 1 1 1
    0.083333333333	0.000000000000	0.916666666667 1 1 1
    0.000000000000	0.083333333333	0.916666666667 1 1 1
    0.000000000000	0.166666666667	0.000000000000 1 1 1
    0.083333333333	0.250000000000	0.000000000000 1 1 1
    0.083333333333	0.166666666667	0.083333333333 1 1 1
    0.000000000000	0.250000000000	0.083333333333 1 1 1
    0.000000000000	0.166666666667	0.166666666667 1 1 1
    0.083333333333	0.250000000000	0.166666666667 1 1 1
    0.083333333333	0.166666666667	0.250000000000 1 1 1
    0.000000000000	0.250000000000	0.250000000000 1 1 1
    0.000000000000	0.166666666667	0.333333333333 1 1 1
    0.083333333333	0.250000000000	0.333333333333 1 1 1
    0.083333333333	0.166666666667	0.416666666667 1 1 1
    0.000000000000	0.250000000000	0.416666666667 1 1 1
    0.000000000000	0.166666666667	0.500000000000 1 1 1
    0.083333333333	0.250000000000	0.500000000000 1 1 1
    0.083333333333	0.166666666667	0.583333333333 1 1 1
    0.000000000000	0.250000000000	0.583333333333 1 1 1
    0.000000000000	0.166666666667	0.666666666667 1 1 1
    0.083333333333	0.250000000000	0.666666666667 1 1 1
    0.083333333333	0.166666666667	0.750000000000 1 1 1
    0.000000000000	0.250000000000	0.750000000000 1 1 1
    0.000000000000	0.166666666667	0.833333333333 1 1 1
    0.083333333333	0.250000000000	0.833333333333 1 1 1
    0.083333333333	0.166666666667	0.916666666667 1 1 1
    0.000000000000	0.250000000000	0.916666666667 1 1 1
    0.000000000000	0.333333333333	0.000000000000 1 1 1
    0.083333333333	0.416666666667	0.000000000000 1 1 1
    0.083333333333	0.333333333333	0.083333333333 1 1 1
    0.000000000000	0.416666666667	0.083333333333 1 1 1
    0.000000000000	0.333333333333	0.166666666667 1 1 1
    0.083333333333	0.416666666667	0.166666666667 1 1 1
    0.083333333333	0.333333333333	0.250000000000 1 1 1
    0.000000000000	0.416666666667	0.250000000000 1 1 1
    0.000000000000	0.333333333333	0.333333333333 1 1 1
    0.083333333333	0.416666666667	0.333333333333 1 1 1
    0.083333333333	0.333333333333	0.416666666667 1 1 1
    0.000000000000	0.416666666667	0.416666666667 1 1 1
    0.000000000000	0.333333333333	0.500000000000 1 1 1
    0.083333333333	0.416666666667	0.500000000000 1 1 1
    0.083333333333	0.333333333333	0.583333333333 1 1 1
    0.000000000000	0.416666666667	0.583333333333 1 1 1
    0.000000000000	0.333333333333	0.666666666667 1 1 1
    0.083333333333	0.416666666667	0.666666666667 1 1 1
    0.083333333333	0.333333333333	0.750000000000 1 1 1
    0.000000000000	0.416666666667	0.750000000000 1 1 1
    0.000000000000	0.333333333333	0.833333333333 1 1 1
    0.083333333333	0.416666666667	0.833333333333 1 1 1
    0.083333333333	0.333333333333	0.916666666667 1 1 1
    0.000000000000	0.416666666667	0.916666666667 1 1 1
    0.000000000000	0.500000000000	0.000000000000 1 1 1
    0.083333333333	0.583333333333	0.000000000000 1 1 1
    0.083333333333	0.500000000000	0.083333333333 1 1 1
    0.000000000000	0.583333333333	0.083333333333 1 1 1
    0.000000000000	0.500000000000	0.166666666667 1 1 1
    0.083333333333	0.583333333333	0.166666666667 1 1 1
    0.083333333333	0.500000000000	0.250000000000 1 1 1
    0.000000000000	0.583333333333	0.250000000000 1 1 1
    0.000000000000	0.500000000000	0.333333333333 1 1 1
    0.083333333333	0.583333333333	0.333333333333 1 1 1
    0.083333333333	0.500000000000	0.416666666667 1 1 1
    0.000000000000	0.583333333333	0.416666666667 1 1 1
    0.000000000000	0.500000000000	0.500000000000 1 1 1
    0.083333333333	0.583333333333	0.500000000000 1 1 1
    0.083333333333	0.500000000000	0.583333333333 1 1 1
    0.000000000000	0.583333333333	0.583333333333 1 1 1
    0.000000000000	0.500000000000	0.666666666667 1 1 1
    0.083333333333	0.583333333333	0.666666666667 1 1 1
    0.083333333333	0.500000000000	0.750000000000 1 1 1
    0.000000000000	0.583333333333	0.750000000000 1 1 1
    0.000000000000	0.500000000000	0.833333333333 1 1 1
    0.083333333333	0.583333333333	0.833333333333 1 1 1
    0.083333333333	0.500000000000	0.916666666667 1 1 1
    0.000000000000	0.583333333333	0.916666666667 1 1 1
    0.000000000000	0.666666666667	0.000000000000 1 1 1
    0.083333333333	0.750000000000	0.000000000000 1 1 1
    0.083333333333	0.666666666667	0.083333333333 1 1 1
    0.000000000000	0.750000000000	0.083333333333 1 1 1
    0.000000000000	0.666666666667	0.166666666667 1 1 1
    0.083333333333	0.750000000000	0.166666666667 1 1 1
    0.083333333333	0.666666666667	0.250000000000 1 1 1
    0.000000000000	0.750000000000	0.250000000000 1 1 1
    0.000000000000	0.666666666667	0.333333333333 1 1 1
    0.083333333333	0.750000000000	0.333333333333 1 1 1
    0.083333333333	0.666666666667	0.416666666667 1 1 1
    0.000000000000	0.750000000000	0.416666666667 1 1 1
    0.000000000000	0.666666666667	0.500000000000 1 1 1
    0.083333333333	0.750000000000	0.500000000000 1 1 1
    0.083333333333	0.666666666667	0.583333333333 1 1 1
    0.000000000000	0.750000000000	0.583333333333 1 1 1
    0.000000000000	0.666666666667	0.666666666667 1 1 1
    0.083333333333	0.750000000000	0.666666666667 1 1 1
    0.083333333333	0.666666666667	0.750000000000 1 1 1
    0.000000000000	0.750000000000	0.750000000000 1 1 1
    0.000000000000	0.666666666667	0.833333333333 1 1 1
    0.083333333333	0.750000000000	0.833333333333 1 1 1
    0.083333333333	0.666666666667	0.916666666667 1 1 1
    0.000000000000	0.750000000000	0.916666666667 1 1 1
    0.000000000000	0.833333333333	0.000000000000 1 1 1
    0.083333333333	0.916666666667	0.000000000000 1 1 1
    0.083333333333	0.833333333333	0.083333333333 1 1 1
    0.000000000000	0.916666666667	0.083333333333 1 1 1
    0.000000000000	0.833333333333	0.166666666667 1 1 1
    0.083333333333	0.916666666667	0.166666666667 1 1 1
    0.083333333333	0.833333333333	0.250000000000 1 1 1
    0.000000000000	0.916666666667	0.250000000000 1 1 1
    0.000000000000	0.833333333333	0.333333333333 1 1 1
    0.083333333333	0.916666666667	0.333333333333 1 1 1
    0.083333333333	0.833333333333	0.416666666667 1 1 1
    0.000000000000	0.916666666667	0.416666666667 1 1 1
    0.000000000000	0.833333333333	0.500000000000 1 1 1
    0.083333333333	0.916666666667	0.500000000000 1 1 1
    0.083333333333	0.833333333333	0.583333333333 1 1 1
    0.000000000000	0.916666666667	0.583333333333 1 1 1
    0.000000000000	0.833333333333	0.666666666667 1 1 1
    0.083333333333	0.916666666667	0.666666666667 1 1 1
    0.083333333333	0.833333333333	0.750000000000 1 1 1
    0.000000000000	0.916666666667	0.750000000000 1 1 1
    0.000000000000	0.833333333333	0.833333333333 1 1 1
    0.083333333333	0.916666666667	0.833333333333 1 1 1
    0.083333333333	0.833333333333	0.916666666667 1 1 1
    0.000000000000	0.916666666667	0.916666666667 1 1 1
    0.166666666667	0.000000000000	0.000000000000 1 1 1
    0.250000000000	0.083333333333	0.000000000000 1 1 1
    0.250000000000	0.000000000000	0.083333333333 1 1 1
    0.166666666667	0.083333333333	0.083333333333 1 1 1
    0.166666666667	0.000000000000	0.166666666667 1 1 1
    0.250000000000	0.083333333333	0.166666666667 1 1 1
    0.250000000000	0.000000000000	0.250000000000 1 1 1
    0.166666666667	0.083333333333	0.250000000000 1 1 1
    0.166666666667	0.000000000000	0.333333333333 1 1 1
    0.250000000000	0.083333333333	0.333333333333 1 1 1
    0.250000000000	0.000000000000	0.416666666667 1 1 1
    0.166666666667	0.083333333333	0.416666666667 1 1 1
    0.166666666667	0.000000000000	0.500000000000 1 1 1
    0.250000000000	0.083333333333	0.500000000000 1 1 1
    0.250000000000	0.000000000000	0.583333333333 1 1 1
    0.166666666667	0.083333333333	0.583333333333 1 1 1
    0.166666666667	0.000000000000	0.666666666667 1 1 1
    0.250000000000	0.083333333333	0.666666666667 1 1 1
    0.250000000000	0.000000000000	0.750000000000 1 1 1
    0.166666666667	0.083333333333	0.750000000000 1 1 1
    0.166666666667	0.000000000000	0.833333333333 1 1 1
    0.250000000000	0.083333333333	0.833333333333 1 1 1
    0.250000000000	0.000000000000	0.916666666667 1 1 1
    0.166666666667	0.083333333333	0.916666666667 1 1 1
    0.166666666667	0.166666666667	0.000000000000 1 1 1
    0.250000000000	0.250000000000	0.000000000000 1 1 1
    0.250000000000	0.166666666667	0.083333333333 1 1 1
    0.166666666667	0.250000000000	0.083333333333 1 1 1
    0.166666666667	0.166666666667	0.166666666667 1 1 1
    0.250000000000	0.250000000000	0.166666666667 1 1 1
    0.250000000000	0.166666666667	0.250000000000 1 1 1
    0.166666666667	0.250000000000	0.250000000000 1 1 1
    0.166666666667	0.166666666667	0.333333333333 1 1 1
    0.250000000000	0.250000000000	0.333333333333 1 1 1
    0.250000000000	0.166666666667	0.416666666667 1 1 1
    0.166666666667	0.250000000000	0.416666666667 1 1 1
    0.166666666667	0.166666666667	0.500000000000 1 1 1
    0.250000000000	0.250000000000	0.500000000000 1 1 1
    0.250000000000	0.166666666667	0.583333333333 1 1 1
    0.166666666667	0.250000000000	0.583333333333 1 1 1
    0.166666666667	0.166666666667	0.666666666667 1 1 1
    0.250000000000	0.250000000000	0.666666666667 1 1 1
    0.250000000000	0.166666666667	0.750000000000 1 1 1
    0.166666666667	0.250000000000	0.750000000000 1 1 1
    0.166666666667	0.166666666667	0.833333333333 1 1 1
    0.250000000000	0.250000000000	0.833333333333 1 1 1
    0.250000000000	0.166666666667	0.916666666667 1 1 1
    0.166666666667	0.250000000000	0.916666666667 1 1 1
    0.166666666667	0.333333333333	0.000000000000 1 1 1
    0.250000000000	0.416666666667	0.000000000000 1 1 1
    0.250000000000	0.333333333333	0.083333333333 1 1 1
    0.166666666667	0.416666666667	0.083333333333 1 1 1
    0.166666666667	0.333333333333	0.166666666667 1 1 1
    0.250000000000	0.416666666667	0.166666666667 1 1 1
    0.250000000000	0.333333333333	0.250000000000 1 1 1
    0.166666666667	0.416666666667	0.250000000000 1 1 1
    0.166666666667	0.333333333333	0.333333333333 1 1 1
    0.250000000000	0.416666666667	0.333333333333 1 1 1
    0.250000000000	0.333333333333	0.416666666667 1 1 1
    0.166666666667	0.416666666667	0.416666666667 1 1 1
    0.166666666667	0.333333333333	0.500000000000 1 1 1
    0.250000000000	0.416666666667	0.500000000000 1 1 1
    0.250000000000	0.333333333333	0.583333333333 1 1 1
    0.166666666667	0.416666666667	0.583333333333 1 1 1
    0.166666666667	0.333333333333	0.666666666667 1 1 1
    0.250000000000	0.416666666667	0.666666666667 1 1 1
    0.250000000000	0.333333333333	0.750000000000 1 1 1
    0.166666666667	0.416666666667	0.750000000000 1 1 1
    0.166666666667	0.333333333333	0.833333333333 1 1 1
    0.250000000000	0.416666666667	0.833333333333 1 1 1
    0.250000000000	0.333333333333	0.916666666667 1 1 1
    0.166666666667	0.416666666667	0.916666666667 1 1 1
    0.166666666667	0.500000000000	0.000000000000 1 1 1
    0.250000000000	0.583333333333	0.000000000000 1 1 1
    0.250000000000	0.500000000000	0.083333333333 1 1 1
    0.166666666667	0.583333333333	0.083333333333 1 1 1
    0.166666666667	0.500000000000	0.166666666667 1 1 1
    0.250000000000	0.583333333333	0.166666666667 1 1 1
    0.250000000000	0.500000000000	0.250000000000 1 1 1
    0.166666666667	0.583333333333	0.250000000000 1 1 1
    0.166666666667	0.500000000000	0.333333333333 1 1 1
    0.250000000000	0.583333333333	0.333333333333 1 1 1
    0.250000000000	0.500000000000	0.416666666667 1 1 1
    0.166666666667	0.583333333333	0.416666666667 1 1 1
    0.166666666667	0.500000000000	0.500000000000 1 1 1
    0.250000000000	0.583333333333	0.500000000000 1 1 1
    0.250000000000	0.500000000000	0.583333333333 1 1 1
    0.166666666667	0.583333333333	0.583333333333 1 1 1
    0.166666666667	0.500000000000	0.666666666667 1 1 1
    0.250000000000	0.583333333333	0.666666666667 1 1 1
    0.250000000000	0.500000000000	0.750000000000 1 1 1
    0.166666666667	0.583333333333	0.750000000000 1 1 1
    0.166666666667	0.500000000000	0.833333333333 1 1 1
    0.250000000000	0.583333333333	0.833333333333 1 1 1
    0.250000000000	0.500000000000	0.916666666667 1 1 1
    0.166666666667	0.583333333333	0.916666666667 1 1 1
    0.166666666667	0.666666666667	0.000000000000 1 1 1
    0.250000000000	0.750000000000	0.000000000000 1 1 1
    0.250000000000	0.666666666667	0.083333333333 1 1 1
    0.166666666667	0.750000000000	0.083333333333 1 1 1
    0.166666666667	0.666666666667	0.166666666667 1 1 1
    0.250000000000	0.750000000000	0.166666666667 1 1 1
    0.250000000000	0.666666666667	0.250000000000 1 1 1
    0.166666666667	0.750000000000	0.250000000000 1 1 1
    0.166666666667	0.666666666667	0.333333333333 1 1 1
    0.250000000000	0.750000000000	0.333333333333 1 1 1
    0.250000000000	0.666666666667	0.416666666667 1 1 1
    0.166666666667	0.750000000000	0.416666666667 1 1 1
    0.166666666667	0.666666666667	0.500000000000 1 1 1
    0.250000000000	0.750000000000	0.500000000000 1 1 1
    0.250000000000	0.666666666667	0.583333333333 1 1 1
    0.166666666667	0.750000000000	0.583333333333 1 1 1
    0.166666666667	0.666666666667	0.666666666667 1 1 1
    0.250000000000	0.750000000000	0.666666666667 1 1 1
    0.250000000000	0.666666666667	0.750000000000 1 1 1
    0.166666666667	0.750000000000	0.750000000000 1 1 1
    0.166666666667	0.666666666667	0.833333333333 1 1 1
    0.250000000000	0.750000000000	0.833333333333 1 1 1
    0.250000000000	0.666666666667	0.916666666667 1 1 1
    0.166666666667	0.750000000000	0.916666666667 1 1 1
    0.166666666667	0.833333333333	0.000000000000 1 1 1
    0.250000000000	0.916666666667	0.000000000000 1 1 1
    0.250000000000	0.833333333333	0.083333333333 1 1 1
    0.166666666667	0.916666666667	0.083333333333 1 1 1
    0.166666666667	0.833333333333	0.166666666667 1 1 1
    0.250000000000	0.916666666667	0.166666666667 1 1 1
    0.250000000000	0.833333333333	0.250000000000 1 1 1
    0.166666666667	0.916666666667	0.250000000000 1 1 1
    0.166666666667	0.833333333333	0.333333333333 1 1 1
    0.250000000000	0.916666666667	0.333333333333 1 1 1
    0.250000000000	0.833333333333	0.416666666667 1 1 1
    0.166666666667	0.916666666667	0.416666666667 1 1 1
    0.166666666667	0.833333333333	0.500000000000 1 1 1
    0.250000000000	0.916666666667	0.500000000000 1 1 1
    0.250000000000	0.833333333333	0.583333333333 1 1 1
    0.166666666667	0.916666666667	0.583333333333 1 1 1
    0.166666666667	0.833333333333	0.666666666667 1 1 1
    0.250000000000	0.916666666667	0.666666666667 1 1 1
    0.250000000000	0.833333333333	0.750000000000 1 1 1
    0.166666666667	0.916666666667	0.750000000000 1 1 1
    0.166666666667	0.833333333333	0.833333333333 1 1 1
    0.250000000000	0.916666666667	0.833333333333 1 1 1
    0.250000000000	0.833333333333	0.916666666667 1 1 1
    0.166666666667	0.916666666667	0.916666666667 1 1 1
    0.333333333333	0.000000000000	0.000000000000 1 1 1
    0.416666666667	0.083333333333	0.000000000000 1 1 1
    0.416666666667	0.000000000000	0.083333333333 1 1 1
    0.333333333333	0.083333333333	0.083333333333 1 1 1
    0.333333333333	0.000000000000	0.166666666667 1 1 1
    0.416666666667	0.083333333333	0.166666666667 1 1 1
    0.416666666667	0.000000000000	0.250000000000 1 1 1
    0.333333333333	0.083333333333	0.250000000000 1 1 1
    0.333333333333	0.000000000000	0.333333333333 1 1 1
    0.416666666667	0.083333333333	0.333333333333 1 1 1
    0.416666666667	0.000000000000	0.416666666667 1 1 1
    0.333333333333	0.083333333333	0.416666666667 1 1 1
    0.333333333333	0.000000000000	0.500000000000 1 1 1
    0.416666666667	0.083333333333	0.500000000000 1 1 1
    0.416666666667	0.000000000000	0.583333333333 1 1 1
    0.333333333333	0.083333333333	0.583333333333 1 1 1
    0.333333333333	0.000000000000	0.666666666667 1 1 1
    0.416666666667	0.083333333333	0.666666666667 1 1 1
    0.416666666667	0.000000000000	0.750000000000 1 1 1
    0.333333333333	0.083333333333	0.750000000000 1 1 1
    0.333333333333	0.000000000000	0.833333333333 1 1 1
    0.416666666667	0.083333333333	0.833333333333 1 1 1
    0.416666666667	0.000000000000	0.916666666667 1 1 1
    0.333333333333	0.083333333333	0.916666666667 1 1 1
    0.333333333333	0.166666666667	0.000000000000 1 1 1
    0.416666666667	0.250000000000	0.000000000000 1 1 1
    0.416666666667	0.166666666667	0.083333333333 1 1 1
    0.333333333333	0.250000000000	0.083333333333 1 1 1
    0.333333333333	0.166666666667	0.166666666667 1 1 1
    0.416666666667	0.250000000000	0.166666666667 1 1 1
    0.416666666667	0.166666666667	0.250000000000 1 1 1
    0.333333333333	0.250000000000	0.250000000000 1 1 1
    0.333333333333	0.166666666667	0.333333333333 1 1 1
    0.416666666667	0.250000000000	0.333333333333 1 1 1
    0.416666666667	0.166666666667	0.416666666667 1 1 1
    0.333333333333	0.250000000000	0.416666666667 1 1 1
    0.333333333333	0.166666666667	0.500000000000 1 1 1
    0.416666666667	0.250000000000	0.500000000000 1 1 1
    0.416666666667	0.166666666667	0.583333333333 1 1 1
    0.333333333333	0.250000000000	0.583333333333 1 1 1
    0.333333333333	0.166666666667	0.666666666667 1 1 1
    0.416666666667	0.250000000000	0.666666666667 1 1 1
    0.416666666667	0.166666666667	0.750000000000 1 1 1
    0.333333333333	0.250000000000	0.750000000000 1 1 1
    0.333333333333	0.166666666667	0.833333333333 1 1 1
    0.416666666667	0.250000000000	0.833333333333 1 1 1
    0.416666666667	0.166666666667	0.916666666667 1 1 1
    0.333333333333	0.250000000000	0.916666666667 1 1 1
    0.333333333333	0.333333333333	0.000000000000 1 1 1
    0.416666666667	0.416666666667	0.000000000000 1 1 1
    0.416666666667	0.333333333333	0.083333333333 1 1 1
    0.333333333333	0.416666666667	0.083333333333 1 1 1
    0.333333333333	0.333333333333	0.166666666667 1 1 1
    0.416666666667	0.416666666667	0.166666666667 1 1 1
    0.416666666667	0.333333333333	0.250000000000 1 1 1
    0.333333333333	0.416666666667	0.250000000000 1 1 1
    0.333333333333	0.333333333333	0.333333333333 1 1 1
    0.416666666667	0.416666666667	0.333333333333 1 1 1
    0.416666666667	0.333333333333	0.416666666667 1 1 1
    0.333333333333	0.416666666667	0.416666666667 1 1 1
    0.333333333333	0.333333333333	0.500000000000 1 1 1
    0.416666666667	0.416666666667	0.500000000000 1 1 1
    0.416666666667	0.333333333333	0.583333333333 1 1 1
    0.333333333333	0.416666666667	0.583333333333 1 1 1
    0.333333333333	0.333333333333	0.666666666667 1 1 1
    0.416666666667	0.416666666667	0.666666666667 1 1 1
    0.416666666667	0.333333333333	0.750000000000 1 1 1
    0.333333333333	0.416666666667	0.750000000000 1 1 1
    0.333333333333	0.333333333333	0.833333333333 1 1 1
    0.416666666667	0.416666666667	0.833333333333 1 1 1
    0.416666666667	0.333333333333	0.916666666667 1 1 1
    0.333333333333	0.416666666667	0.916666666667 1 1 1
    0.333333333333	0.500000000000	0.000000000000 1 1 1
    0.416666666667	0.583333333333	0.000000000000 1 1 1
    0.416666666667	0.500000000000	0.083333333333 1 1 1
    0.333333333333	0.583333333333	0.083333333333 1 1 1
    0.333333333333	0.500000000000	0.166666666667 1 1 1
    0.416666666667	0.583333333333	0.166666666667 1 1 1
    0.416666666667	0.500000000000	0.250000000000 1 1 1
    0.333333333333	0.583333333333	0.250000000000 1 1 1
    0.333333333333	0.500000000000	0.333333333333 1 1 1
    0.416666666667	0.583333333333	0.333333333333 1 1 1
    0.416666666667	0.500000000000	0.416666666667 1 1 1
    0.333333333333	0.583333333333	0.416666666667 1 1 1
    0.333333333333	0.500000000000	0.500000000000 1 1 1
    0.416666666667	0.583333333333	0.500000000000 1 1 1
    0.416666666667	0.500000000000	0.583333333333 1 1 1
    0.333333333333	0.583333333333	0.583333333333 1 1 1
    0.333333333333	0.500000000000	0.666666666667 1 1 1
    0.416666666667	0.583333333333	0.666666666667 1 1 1
    0.416666666667	0.500000000000	0.750000000000 1 1 1
    0.333333333333	0.583333333333	0.750000000000 1 1 1
    0.333333333333	0.500000000000	0.833333333333 1 1 1
    0.416666666667	0.583333333333	0.833333333333 1 1 1
    0.416666666667	0.500000000000	0.916666666667 1 1 1
    0.333333333333	0.583333333333	0.916666666667 1 1 1
    0.333333333333	0.666666666667	0.000000000000 1 1 1
    0.416666666667	0.750000000000	0.000000000000 1 1 1
    0.416666666667	0.666666666667	0.083333333333 1 1 1
    0.333333333333	0.750000000000	0.083333333333 1 1 1
    0.333333333333	0.666666666667	0.166666666667 1 1 1
    0.416666666667	0.750000000000	0.166666666667 1 1 1
    0.416666666667	0.666666666667	0.250000000000 1 1 1
    0.333333333333	0.750000000000	0.250000000000 1 1 1
    0.333333333333	0.666666666667	0.333333333333 1 1 1
    0.416666666667	0.750000000000	0.333333333333 1 1 1
    0.416666666667	0.666666666667	0.416666666667 1 1 1
    0.333333333333	0.750000000000	0.416666666667 1 1 1
    0.333333333333	0.666666666667	0.500000000000 1 1 1
    0.416666666667	0.750000000000	0.500000000000 1 1 1
    0.416666666667	0.666666666667	0.583333333333 1 1 1
    0.333333333333	0.750000000000	0.583333333333 1 1 1
    0.333333333333	0.666666666667	0.666666666667 1 1 1
    0.416666666667	0.750000000000	0.666666666667 1 1 1
    0.416666666667	0.666666666667	0.750000000000 1 1 1
    0.333333333333	0.750000000000	0.750000000000 1 1 1
    0.333333333333	0.666666666667	0.833333333333 1 1 1
    0.416666666667	0.750000000000	0.833333333333 1 1 1
    0.416666666667	0.666666666667	0.916666666667 1 1 1
    0.333333333333	0.750000000000	0.916666666667 1 1 1
    0.333333333333	0.833333333333	0.000000000000 1 1 1
    0.416666666667	0.916666666667	0.000000000000 1 1 1
    0.416666666667	0.833333333333	0.083333333333 1 1 1
    0.333333333333	0.916666666667	0.083333333333 1 1 1
    0.333333333333	0.833333333333	0.166666666667 1 1 1
    0.416666666667	0.916666666667	0.166666666667 1 1 1
    0.416666666667	0.833333333333	0.250000000000 1 1 1
    0.333333333333	0.916666666667	0.250000000000 1 1 1
    0.333333333333	0.833333333333	0.333333333333 1 1 1
    0.416666666667	0.916666666667	0.333333333333 1 1 1
    0.416666666667	0.833333333333	0.416666666667 1 1 1
    0.333333333333	0.916666666667	0.416666666667 1 1 1
    0.333333333333	0.833333333333	0.500000000000 1 1 1
    0.416666666667	0.916666666667	0.500000000000 1 1 1
    0.416666666667	0.833333333333	0.583333333333 1 1 1
    0.333333333333	0.916666666667	0.583333333333 1 1 1
    0.333333333333	0.833333333333	0.666666666667 1 1 1
    0.416666666667	0.916666666667	0.666666666667 1 1 1
    0.416666666667	0.833333333333	0.750000000000 1 1 1
    0.333333333333	0.916666666667	0.750000000000 1 1 1
    0.333333333333	0.833333333333	0.833333333333 1 1 1
    0.416666666667	0.916666666667	0.833333333333 1 1 1
    0.416666666667	0.833333333333	0.916666666667 1 1 1
    0.333333333333	0.916666666667	0.916666666667 1 1 1
    0.500000000000	0.000000000000	0.000000000000 1 1 1
    0.583333333333	0.083333333333	0.000000000000 1 1 1
    0.583333333333	0.000000000000	0.083333333333 1 1 1
    0.500000000000	0.083333333333	0.083333333333 1 1 1
    0.500000000000	0.000000000000	0.166666666667 1 1 1
    0.583333333333	0.083333333333	0.166666666667 1 1 1
    0.583333333333	0.000000000000	0.250000000000 1 1 1
    0.500000000000	0.083333333333	0.250000000000 1 1 1
    0.500000000000	0.000000000000	0.333333333333 1 1 1
    0.583333333333	0.083333333333	0.333333333333 1 1 1
    0.583333333333	0.000000000000	0.416666666667 1 1 1
    0.500000000000	0.083333333333	0.416666666667 1 1 1
    0.500000000000	0.000000000000	0.500000000000 1 1 1
    0.583333333333	0.083333333333	0.500000000000 1 1 1
    0.583333333333	0.000000000000	0.583333333333 1 1 1
    0.500000000000	0.083333333333	0.583333333333 1 1 1
    0.500000000000	0.000000000000	0.666666666667 1 1 1
    0.583333333333	0.083333333333	0.666666666667 1 1 1
    0.583333333333	0.000000000000	0.750000000000 1 1 1
    0.500000000000	0.083333333333	0.750000000000 1 1 1
    0.500000000000	0.000000000000	0.833333333333 1 1 1
    0.583333333333	0.083333333333	0.833333333333 1 1 1
    0.583333333333	0.000000000000	0.916666666667 1 1 1
    0.500000000000	0.083333333333	0.916666666667 1 1 1
    0.500000000000	0.166666666667	0.000000000000 1 1 1
    0.583333333333	0.250000000000	0.000000000000 1 1 1
    0.583333333333	0.166666666667	0.083333333333 1 1 1
    0.500000000000	0.250000000000	0.083333333333 1 1 1
    0.500000000000	0.166666666667	0.166666666667 1 1 1
    0.583333333333	0.250000000000	0.166666666667 1 1 1
    0.583333333333	0.166666666667	0.250000000000 1 1 1
    0.500000000000	0.250000000000	0.250000000000 1 1 1
    0.500000000000	0.166666666667	0.333333333333 1 1 1
    0.583333333333	0.250000000000	0.333333333333 1 1 1
    0.583333333333	0.166666666667	0.416666666667 1 1 1
    0.500000000000	0.250000000000	0.416666666667 1 1 1
    0.500000000000	0.166666666667	0.500000000000 1 1 1
    0.583333333333	0.250000000000	0.500000000000 1 1 1
    0.583333333333	0.166666666667	0.583333333333 1 1 1
    0.500000000000	0.250000000000	0.583333333333 1 1 1
    0.500000000000	0.166666666667	0.666666666667 1 1 1
    0.583333333333	0.250000000000	0.666666666667 1 1 1
    0.583333333333	0.166666666667	0.750000000000 1 1 1
    0.500000000000	0.250000000000	0.750000000000 1 1 1
    0.500000000000	0.166666666667	0.833333333333 1 1 1
    0.583333333333	0.250000000000	0.833333333333 1 1 1
    0.583333333333	0.166666666667	0.916666666667 1 1 1
    0.500000000000	0.250000000000	0.916666666667 1 1 1
    0.500000000000	0.333333333333	0.000000000000 1 1 1
    0.583333333333	0.416666666667	0.000000000000 1 1 1
    0.583333333333	0.333333333333	0.083333333333 1 1 1
    0.500000000000	0.416666666667	0.083333333333 1 1 1
    0.500000000000	0.333333333333	0.166666666667 1 1 1
    0.583333333333	0.416666666667	0.166666666667 1 1 1
    0.583333333333	0.333333333333	0.250000000000 1 1 1
    0.500000000000	0.416666666667	0.250000000000 1 1 1
    0.500000000000	0.333333333333	0.333333333333 1 1 1
    0.583333333333	0.416666666667	0.333333333333 1 1 1
    0.583333333333	0.333333333333	0.416666666667 1 1 1
    0.500000000000	0.416666666667	0.416666666667 1 1 1
    0.500000000000	0.333333333333	0.500000000000 1 1 1
    0.583333333333	0.416666666667	0.500000000000 1 1 1
    0.583333333333	0.333333333333	0.583333333333 1 1 1
    0.500000000000	0.416666666667	0.583333333333 1 1 1
    0.500000000000	0.333333333333	0.666666666667 1 1 1
    0.583333333333	0.416666666667	0.666666666667 1 1 1
    0.583333333333	0.333333333333	0.750000000000 1 1 1
    0.500000000000	0.416666666667	0.750000000000 1 1 1
    0.500000000000	0.333333333333	0.833333333333 1 1 1
    0.583333333333	0.416666666667	0.833333333333 1 1 1
    0.583333333333	0.333333333333	0.916666666667 1 1 1
    0.500000000000	0.416666666667	0.916666666667 1 1 1
    0.500000000000	0.500000000000	0.000000000000 1 1 1
    0.583333333333	0.583333333333	0.000000000000 1 1 1
    0.583333333333	0.500000000000	0.083333333333 1 1 1
    0.500000000000	0.583333333333	0.083333333333 1 1 1
    0.500000000000	0.500000000000	0.166666666667 1 1 1
    0.583333333333	0.583333333333	0.166666666667 1 1 1
    0.583333333333	0.500000000000	0.250000000000 1 1 1
    0.500000000000	0.583333333333	0.250000000000 1 1 1
    0.500000000000	0.500000000000	0.333333333333 1 1 1
    0.583333333333	0.583333333333	0.333333333333 1 1 1
    0.583333333333	0.500000000000	0.416666666667 1 1 1
    0.500000000000	0.583333333333	0.416666666667 1 1 1
    0.500000000000	0.500000000000	0.500000000000 1 1 1
    0.583333333333	0.583333333333	0.500000000000 1 1 1
    0.583333333333	0.500000000000	0.583333333333 1 1 1
    0.500000000000	0.583333333333	0.583333333333 1 1 1
    0.500000000000	0.500000000000	0.666666666667 1 1 1
    0.583333333333	0.583333333333	0.666666666667 1 1 1
    0.583333333333	0.500000000000	0.750000000000 1 1 1
    0.500000000000	0.583333333333	0.750000000000 1 1 1
    0.500000000000	0.500000000000	0.833333333333 1 1 1
    0.583333333333	0.583333333333	0.833333333333 1 1 1
    0.583333333333	0.500000000000	0.916666666667 1 1 1
    0.500000000000	0.583333333333	0.916666666667 1 1 1
    0.500000000000	0.666666666667	0.000000000000 1 1 1
    0.583333333333	0.750000000000	0.000000000000 1 1 1
    0.583333333333	0.666666666667	0.083333333333 1 1 1
    0.500000000000	0.750000000000	0.083333333333 1 1 1
    0.500000000000	0.666666666667	0.166666666667 1 1 1
    0.583333333333	0.750000000000	0.166666666667 1 1 1
    0.583333333333	0.666666666667	0.250000000000 1 1 1
    0.500000000000	0.750000000000	0.250000000000 1 1 1
    0.500000000000	0.666666666667	0.333333333333 1 1 1
    0.583333333333	0.750000000000	0.333333333333 1 1 1
    0.583333333333	0.666666666667	0.416666666667 1 1 1
    0.500000000000	0.750000000000	0.416666666667 1 1 1