INPUT_PARAMETERS
ntype                         2
ecutwfc                       100
nbands                        220
scf_nmax                      400
scf_thr                       1e-08
basis_type                    lcao
ks_solver                     genelpa
smearing_method               gaussian
smearing_sigma                0.0005
mixing_type                   pulay-kerker
mixing_beta                   0.4
pseudo_dir                    ../../PP_ORB
nspin                         2
nelec                         254
gamma_only                    1
relax_nmax                    50
cal_force                     1
force_thr_ev                  0.01
relax_method                  cg
out_force                     1
out_stru                      1
ocp                           1
ocp_set                       128*1 92*0 125*1 0 0.5 0.5 92*0
suffix                        autotest
calculation                   relax
