INPUT_PARAMETERS
#Parameters	(General)
suffix                  autotest
pseudo_dir		./
read_file_dir           ./
ntype			1	
nbands			12
calculation		md

#Parameter (Accuracy)
ecutwfc			60
scf_nmax			30

smearing_method		gaussian
smearing_sigma			0.02

basis_type		lcao
out_chg		1
gamma_only		0
relax_nstep			1

cal_stress                  1
stress_thr              1e-6
cal_force                   1
force_thr_ev            1.0e-3

scf_thr			1.0e-6

tddft			1

md_type		    0
md_dt			0.01
ocp                     1
ocp_set                 5*2 2*0 1*2 4*0
