ATOMIC_SPECIES
Ba 1.00 Ba.mohan.UPF
Ti 1.00 Ti.mohan.UPF
O  1.00 O.mohan.UPF

LATTICE_CONSTANT
7.55 	// add lattice constant(a.u.)

LATTICE_VECTORS
0.985 0.000 0.000
0.000 0.985 0.000
0.000 0.000 0.995

ATOMIC_POSITIONS
Direct	//Cartesian or Direct coordinate.

Ba 
0.0		//starting magnetism
1		//number of atoms
0.00 0.00 0.00 0 0 0  // crystal coor.

Ti
0.01	//starting magnetism
1		//number of atoms
0.50 0.50 0.51 0 0 1  

O
0.01
3
0.50 0.50 0.00 0 0 1
0.00 0.50 0.49 0 0 1
0.50 0.00 0.49 0 0 1

// Perovskite

