USE_XYZ

ATOMIC_SPECIES
B 10.00 B.pz-vbc.UPF
N 14.00 N.pz-vbc.UPF

NUMERICAL_ORBITAL

LATTICE_CONSTANT
1.88973 #lattice scaling factor (Bohr)

LATTICE_VECTORS
2.5126 0 0
0 10.3054 0
0 0 10.3054 

ATOMIC_POSITIONS
Cartesian_angstrom
B
0
10
B 0 3.45977 6.95836
B 1.25631 5.50478 6.29389
B 0 6.76866 4.5543
B 1.25631 6.76866 2.40405
B 0 5.50478 0.664464
B 1.25631 3.45977 0
B 0 1.41476 0.664464
B 1.25631 0.150872 2.40405
B 0 0.150872 4.5543
B 1.25631 1.41476 6.29389

N
0
10
N 0 4.87794 6.6562
N 1.25631 6.4745 5.21587
N 0 6.91954 3.11217
N 1.25631 6.04306 1.14867
N 0 4.17985 0.075334
N 1.25631 2.0416 0.302155
N 0 0.445037 1.74249
N 1.25631 0 3.84618
N 0 0.876477 5.80969
N 1.25631 2.73968 6.88302
