ATOMIC_SPECIES
C 6 C.pz-vbc.UPF

NUMERICAL_ORBITAL

LATTICE_CONSTANT
1.0  // add lattice constant(a.u.)

LATTICE_VECTORS
14.1279760836 0 0
0 14.1279760836 0
0 0 4.6568539448

ATOMIC_POSITIONS
Cartesian_angstrom  //Cartesian or Direct coordinate.

C
0.0     //starting magnetism
12      //number of atoms
2.064591     0.000000    -1.232141 0 0 0 
1.575573     1.334205    -1.232141 0 0 0
1.032295     1.787988    -0.000000 0 0 0
-0.367669     2.031589    -0.000000 0 0 0
-1.032295     1.787988    -1.232141 0 0 0
-1.943242     0.697384    -1.232141 0 0 0
-2.064591     0.000000    -0.000000 0 0 0
-1.575573    -1.334205    -0.000000 0 0 0
-1.032295    -1.787988    -1.232141 0 0 0
0.367669    -2.031589    -1.232141 0 0 0
1.032295    -1.787988    -0.000000 0 0 0
1.943242    -0.697384    -0.000000 0 0 0
