ATOMIC_SPECIES
Zn 30 Zn.LDA.UPF
Cu 29 Cu.LDA.UPF

LATTICE_CONSTANT
16.85  // add lattice constant(a.u.)

LATTICE_VECTORS
-0.5  0.5  0.5
 0.5 -0.5  0.5
 0.5  0.5 -0.5

ATOMIC_POSITIONS 
Cartesian //Cartesian or Direct coordinate.
Zn
0.000 //starting magnetism
16    //Number of atoms
   0.107263353  0.107263353  0.107263353 0 0 0 
   0.107263353 -0.107263353 -0.107263353 0 0 0
  -0.107263353  0.107263353 -0.107263353 0 0 0
  -0.107263353 -0.107263353  0.107263353 0 0 0 
   0.311939242  0.311939242  0.037099002 0 0 0
  -0.311939242 -0.311939242  0.037099002 0 0 0
  -0.311939242  0.311939242 -0.037099002 0 0 0
   0.311939242 -0.311939242 -0.037099002 0 0 0
   0.037099002  0.311939242  0.311939242 0 0 0
   0.037099002 -0.311939242 -0.311939242 0 0 0
  -0.037099002 -0.311939242  0.311939242 0 0 0
  -0.037099002  0.311939242 -0.311939242 0 0 0
   0.311939242  0.037099002  0.311939242 0 0 0
  -0.311939242  0.037099002 -0.311939242 0 0 0
   0.311939242 -0.037099002 -0.311939242 0 0 0
  -0.311939242 -0.037099002  0.311939242 0 0 0

Cu
0.000 //starting magnetism
10
   0.828314669  0.828314669  0.828314669 0 0 0
   0.828314669 -0.828314669 -0.828314669 0 0 0
  -0.828314669  0.828314669 -0.828314669 0 0 0 
  -0.828314669 -0.828314669  0.828314669 0 0 0
   0.356744724  0.0  0.0 0 0 0
  -0.356744724  0.0  0.0 0 0 0
   0.0  0.356744724  0.0 0 0 0
   0.0 -0.356744724  0.0 0 0 0
   0.0  0.0  0.356744724 0 0 0
   0.0  0.0 -0.356744724 0 0 0
