ATOMIC_SPECIES
Ga 31 Ga.pz-bhs.UPF
N 07 N.pz-vbc.UPF
LATTICE_CONSTANT
8.6  // add lattice constant(a.u.)

LATTICE_VECTORS
0.0 0.5 0.5
0.5 0.0 0.5
0.5 0.5 0.0

ATOMIC_POSITIONS
Direct  //Cartesian or Direct coordinate.

Ga
0.0     //starting magnetism
1       //number of atoms
0 0 0 0 0 0

N
0.0		//starting magnetism
1
0.25 0.25 0.25 0 0 0
