ATOMIC_SPECIES
In 114.82 In.pz-n-bhs.UPF
P 30.973 P.pz-bhs.UPF

LATTICE_CONSTANT
10.93  // add lattice constant(a.u.)

LATTICE_VECTORS
0.0 0.5 0.5 // first vector
0.5 0.0 0.5 // second vector
0.5 0.5 0.0 // third vector

ATOMIC_POSITIONS
Direct  //Cartesian or Direct coordinate.

In      //Element Label
0.000   //starting magnetism
1       //number of atoms
0.0    0.0    0.0   0 0 0  // crystal coor.

P      //Element Label
0.000   //starting magnetism
1       //number of atoms
0.25   0.25   0.25 0 0 0

