ATOMIC_SPECIES
Si 1.000 Si.pz-vbc.UPF

NUMERICAL_ORBITAL

LATTICE_CONSTANT
10 // add lattice constant

LATTICE_VECTORS
1.0 0.0 0.0
0.0 1.0 0.0
0.0 0.0 1.0

ATOMIC_POSITIONS
Cartesian_angstrom //Cartesian or Direct coordinate.

Si	// Element type	
0	// magnetism
2	// number of atoms
0.0 0.0 1.0 0 0 0
3.0 0.0 1.0 0 0 0
0.0 0.0 3.0 0 0 0
