ATOMIC_SPECIES
Si 1.000 Si.pz-vbc.UPF

NUMERICAL_ORBITAL

LATTICE_CONSTANT
10.2  // add lattice constant

LATTICE_VECTORS
1 0 0
0 1 0
0 0 1

ATOMIC_POSITIONS
Direct //Cartesian or Direct coordinate.

Si	// Element type	
0	// magnetism
8	// number of atoms
0.00 0.00 0.00 0 0 1
0.25 0.25 0.25 0 0 0
0.00 0.50 0.50 0 0 0
0.25 0.75 0.75 0 0 0
0.50 0.00 0.50 0 0 0
0.75 0.25 0.75 0 0 0
0.50 0.50 0.00 0 0 0
0.75 0.75 0.25 0 0 0
