INPUT_PARAMETERS
#Parameters (1.General)
suffix			autotest
calculation     relax
ntype			1
nbands			8
symmetry		1
pseudo_dir      ../tools/PP_ORB/
orbital_dir      ../tools/PP_ORB/
pseudo_type     upf201

#Parameters (2.Iteration)
ecutwfc			20
dr2				1e-9
niter			100

#Parameters (3.Relaxation)
nstep           2
force           1
force_thr_ev    0.01
move_method     bfgs

#Parameters (4.Basis)
basis_type		lcao

#Parameters (5.Smearing)
smearing		gauss
sigma			0.002

#Parameters (6.Mixing)
mixing_type		pulay
mixing_beta		0.5
