INPUT_PARAMETERS
suffix			autotest
pseudo_dir	../../PP_ORB
orbital_dir	../../PP_ORB
basis_type      lcao

ecutwfc         60
scf_nmax        50
scf_thr         1e-6

ks_solver		scalapack_gvx
basis_type		lcao
gamma_only		0
md_nstep		2

mixing_type		broyden
mixing_beta		0.7
mixing_gg0      0.0
scf_thr			1.0e-6

calculation     md
esolver_type    tddft
md_type         nve
md_nstep        2
md_dt           0.05
md_tfirst       0

td_vext         1
td_vext_dire    3
td_stype        1
td_ttype        0
td_tstart 		1
td_tend			2
td_gauss_freq		0.32
td_gauss_phase		0.0
td_gauss_sigma		0.5
td_gauss_t0		 1
td_gauss_amp		0.01
