INPUT_PARAMETERS
#Parameters (1.General)
suffix                  abacus
calculation             scf
ntype                   2
nbands                  6
symmetry                0

#Parameters (2.Iteration)
ecutwfc                 50
dr2                     1e-8
niter                   50

#Parameters (3.Basis)
basis_type              lcao 
gamma_only              1

#Parameters (4.Smearing)
smearing                gaussian
sigma                   0.02

#Parameters (5.Mixing)
mixing_type             pulay
mixing_beta             0.4

#Parameters (6.Deepks)
force			1
test_force			1
deepks_out_labels          1
deepks_descriptor_lmax			2
deepks_scf	1
deepks_model	model.ptg