INPUT_PARAMETERS
#Parameters	(General)
suffix              autotest
pseudo_dir		    ../tools/PP_ORB/
ntype			    1	
nbands			    8
calculation         cell-relax

#Parameters (Accuracy)
ecutwfc			    20
niter			    20

basis_type		    pw
nstep               2

stress              1
stress_thr          1e-6
force               1
force_thr_ev        1.0e-3

mixing_type         pulay
mixing_beta         0.7
mixing_gg0          1.5

fixed_axes          ac
