INPUT_PARAMETERS
#Parameters (1.General)
suffix			autotest
calculation     scf

symmetry		0
pseudo_dir	../../PP_ORB
orbital_dir	../../PP_ORB
gamma_only      0

#Parameters (2.Iteration)
ecutwfc			20
scf_thr				1e-6
scf_nmax			100

noncolin	1
#Parameters (3.Basis)
basis_type		lcao

#Parameters (4.Smearing)
smearing_method		gauss
smearing_sigma			0.002

#Parameters (5.Mixing)

