INPUT_PARAMETERS
#Parameters	(General)
pseudo_dir		./	
ntype			1	
nbands			4
#npool                   8
#Parameters (Accuracy)
ecutwfc			50
niter			20
symmetry		1
