ATOMIC_SPECIES
Eu 151.964 PROJECT-Eu.UPF.upf

LATTICE_CONSTANT
5.6692


LATTICE_VECTORS
1 0 0
0 1 0
0 0 1

ATOMIC_POSITIONS
Direct

Eu
0
1
0.0 0.0 0.0 0 0 0
