ATOMIC_SPECIES
He 4.0026 He_ONCV_PBE-1.0.upf

LATTICE_CONSTANT
1.8897270

LATTICE_VECTORS
36 0 0
0 36 0
0 0 36

ATOMIC_POSITIONS
Cartesian

He
0
864
0  0  0  vel  -0.00049692957564  3.08642325245e-05  -0.000349464954484
3  3  0  vel  0.000289069835287  0.00022162252736  0.00029606288819
3  0  3  vel  -9.6260535443e-06  -6.14567190716e-05  -0.000455625694288
0  3  3  vel  0.000407757431727  -0.000109631423661  -0.000240186701905
6  0  0  vel  0.000380347148618  -0.00015181372422  0.000331755483225
9  3  0  vel  -0.000264012795727  -0.000295816886917  -0.000302086014813
9  0  3  vel  -0.000254272061474  -0.000166561408857  0.000351263224886
6  3  3  vel  0.000436071092676  6.19475248019e-05  0.000206705308847
12  0  0  vel  -0.000489305002968  -0.000280966989795  0.000392713149305
15  3  0  vel  -0.000401977103902  0.000207538211871  0.00042545445858
15  0  3  vel  -7.970794974e-05  0.000273054019089  -0.000379361894601
12  3  3  vel  -0.000399645940796  0.000247842299561  0.000400894623158
18  0  0  vel  -0.000386175023586  -0.000155151006197  0.000442442857876
21  3  0  vel  0.000428077972397  0.000201069004736  8.39480150352e-05
21  0  3  vel  -0.000314129456198  0.000399253946401  0.000101839923023
18  3  3  vel  0.000325252338693  0.000172499259028  -0.000377334234115
24  0  0  vel  -0.000442418799466  -7.35208667369e-05  -0.000494936168325
27  3  0  vel  7.11505985651e-05  -0.00028972293868  -0.00024608598531
27  0  3  vel  -0.000418234307061  -5.39739943361e-05  -0.000140760256594
24  3  3  vel  0.000482721451843  0.000319871159521  -0.000329080479197
30  0  0  vel  -0.000332837247556  9.74167400628e-05  0.00021228795399
33  3  0  vel  5.42874895812e-06  6.28739264689e-05  -0.000280514890145
33  0  3  vel  -1.50961367324e-07  -0.000382534353832  0.000436737117717
30  3  3  vel  -0.000128357094625  -0.000460376835586  -0.000199311169334
0  6  0  vel  -7.57217100624e-05  3.0037273491e-05  -0.000198069040694
3  9  0  vel  -0.000274410235504  -0.000422960668244  0.000414189065795
3  6  3  vel  0.000259136768412  -7.06973530069e-05  -0.000208321645844
0  9  3  vel  2.55249438873e-05  -0.000386269563365  -0.000119074063728
6  6  0  vel  -0.000339941182266  0.000127405369849  0.000434875372537
9  9  0  vel  -0.000307780611149  -0.000278586856836  0.000252475260259
9  6  3  vel  2.52801974291e-05  -0.000485410030842  -0.000432910462938
6  9  3  vel  -0.000180686723582  0.000173730254524  0.000240440791165
12  6  0  vel  0.000484777482384  -0.000249664502195  -0.000384992357168
15  9  0  vel  0.000309109484982  -0.000174298395775  -0.000222673453091
15  6  3  vel  -0.000326504212665  0.000157432907927  0.000307816132169
12  9  3  vel  -0.00017778225423  -0.00018619070756  -0.000384673232256
18  6  0  vel  -0.000348827998293  0.000299857131994  -0.000506106080948
21  9  0  vel  7.57379044723e-06  -1.42330536586e-05  0.000405651204199
21  6  3  vel  0.000274995769226  -0.00048030207508  0.000112345373884
18  9  3  vel  0.000260581790588  0.000129910834455  0.000393929834764
24  6  0  vel  -2.47108790391e-05  0.000313194515959  -0.000142657696253
27  9  0  vel  -0.00029661918613  -0.000357661197706  -1.22846225368e-05
27  6  3  vel  7.21723028108e-05  -0.000178771012696  -0.000125572527905
24  9  3  vel  -0.000169592425495  -2.99681206031e-05  -0.000112522470014
30  6  0  vel  0.00038265818486  -0.000449781835882  0.000237487349155
33  9  0  vel  2.16149814156e-05  0.000135159868465  0.000299552856832
33  6  3  vel  0.000438734732242  -0.000331286392388  -0.000312546226497
30  9  3  vel  -0.000432844961441  0.000261444654519  0.000199818925401
0  12  0  vel  0.000186332794739  -0.000325118661073  -2.00523072678e-05
3  15  0  vel  -1.41242113189e-05  -0.000393620921386  -0.00023321575834
3  12  3  vel  0.000122332970117  -0.000134218966  -8.74561534329e-06
0  15  3  vel  0.000341145704907  0.000340473817432  -0.00029472713422
6  12  0  vel  -1.36985011387e-05  -0.000263758117035  -0.000411894984208
9  15  0  vel  -0.000233102076305  0.000370656333015  0.000175763929465
9  12  3  vel  0.000336076458822  0.00044581152609  -0.000196002799512
6  15  3  vel  0.000331242643955  0.000493728456064  0.000274031802904
12  12  0  vel  3.43212511813e-05  -7.27449637077e-05  -0.00050085203298
15  15  0  vel  -2.53360387601e-06  -0.000284474455649  -0.000349723270733
15  12  3  vel  -3.81381034584e-05  0.000446954248549  -5.82543985438e-05
12  15  3  vel  0.000213448380149  -0.000218029037625  0.000419332793613
18  12  0  vel  0.000402035239301  6.09985699063e-05  0.000314873396278
21  15  0  vel  1.14146150763e-05  0.000309494420485  -0.000108306889332
21  12  3  vel  -2.0137547419e-05  -9.83510871422e-05  -0.000327872087869
18  15  3  vel  -9.4970460654e-05  -0.000331496959443  0.000162766545467
24  12  0  vel  -0.00033446235628  -0.000119171123407  -1.3901686733e-06
27  15  0  vel  -0.000479572991851  -0.000298321265453  -0.000242886910789
27  12  3  vel  0.000158960555366  0.00027210010024  -0.000354622972712
24  15  3  vel  -9.40075522919e-05  -0.000205149134171  0.000118954434869
30  12  0  vel  -5.8123041713e-05  -0.000244746273949  -1.77519415164e-05
33  15  0  vel  -0.000491431255084  0.000111932969973  0.000317033863315
33  12  3  vel  0.000193564827208  -0.000209324897142  0.000187388120937
30  15  3  vel  6.09137739236e-06  0.000160308571675  0.000467337696132
0  18  0  vel  0.000343467789707  0.000228198826813  0.000430313302109
3  21  0  vel  0.000293031853377  -0.000428486446631  -0.0001283634432
3  18  3  vel  9.16749426571e-05  0.000435566669699  0.000234165762842
0  21  3  vel  0.000396099376765  -0.000348790024536  -0.000447645861066
6  18  0  vel  4.53203770738e-05  0.000131154220206  0.000216369576626
9  21  0  vel  0.000361935080745  0.000502260412041  0.000158917072007
9  18  3  vel  0.000200027574941  2.36183825815e-05  0.000306089305394
6  21  3  vel  -9.6788781756e-05  0.000218907999092  -0.000165989592969
12  18  0  vel  -3.66866980551e-05  -0.000248732976748  0.000217481118989
15  21  0  vel  -2.43603824272e-05  0.000182521190355  0.00046368721075
15  18  3  vel  0.000208037112905  0.00016042893189  0.000483075211873
12  21  3  vel  -0.000100779927438  0.000379469521583  -0.000230566215709
18  18  0  vel  -0.000507828152735  0.000513310381304  0.000213762466405
21  21  0  vel  -0.000301898931039  0.000224136021588  0.000390071212431
21  18  3  vel  0.000356013963328  0.000340293040641  -0.000322307721309
18  21  3  vel  9.25551429186e-05  0.00017541776176  -0.000501396185463
24  18  0  vel  -0.000115899571174  0.000168930587282  -0.000141301450426
27  21  0  vel  0.000419081529267  -0.000465403644121  -0.00038430388365
27  18  3  vel  -0.000162655858079  0.000137836083349  0.000117672302054
24  21  3  vel  0.000471793634529  0.000310876952553  4.5608367291e-05
30  18  0  vel  -0.000391311797569  -0.000181176385083  -0.00040953369483
33  21  0  vel  0.000313534261112  -7.18811755231e-05  -3.32604041263e-05
33  18  3  vel  -0.000211800819289  0.000103425066411  -0.000167180774493
30  21  3  vel  1.46917090007e-05  0.000190804763598  0.000188317124684
0  24  0  vel  -0.000437395664593  4.97286099288e-05  -0.000426621000735
3  27  0  vel  0.000150581591686  -5.21785610691e-05  -7.22627452632e-05
3  24  3  vel  -0.000387509563916  0.000497530868236  -4.78388862747e-05
0  27  3  vel  -0.000359241782852  -0.00010199339616  -0.000325882629074
6  24  0  vel  0.000223779153779  -0.000207764877334  0.000313604877182
9  27  0  vel  -0.000233441239756  -0.000311772219832  -0.000507956604658
9  24  3  vel  1.67495135178e-05  -0.000348915692658  0.00045098495159
6  27  3  vel  0.000483348186715  -0.000185957280243  -0.000475773568637
12  24  0  vel  -1.16750783783e-05  -0.000377754443331  0.00048642782453
15  27  0  vel  4.61954521539e-05  -0.000215133612464  -9.25938774448e-05
15  24  3  vel  0.00012735677841  3.48664265902e-07  -0.000396102457002
12  27  3  vel  0.000247227896407  0.000492553567916  -0.000404325337946
18  24  0  vel  -0.000464503178787  7.82918878237e-05  -7.40432941471e-05
21  27  0  vel  -0.000205845248615  -0.000159129972855  -0.000195881080308
21  24  3  vel  0.000369820680633  -0.000440377958819  -0.00027692438766
18  27  3  vel  0.000130725503587  0.000418127166578  0.000173304350352
24  24  0  vel  0.000144641148406  0.00046462257955  -0.000165796075894
27  27  0  vel  0.000205019845632  -0.000371866447757  9.17164058982e-05
27  24  3  vel  -0.000215964982255  0.000366820035388  -7.18782192597e-05
24  27  3  vel  5.37490957174e-05  0.000288086253876  0.000369251467311
30  24  0  vel  -0.000316189155728  -9.64533993318e-05  0.000455639222943
33  27  0  vel  0.000428578363859  -0.000421056507012  0.000302920858119
33  24  3  vel  -0.000159231505031  0.000486973881892  0.000154253122767
30  27  3  vel  9.21411570524e-05  0.000242605503925  -0.000302616354028
0  30  0  vel  -0.000135478428408  0.000280763892128  -0.000261128168566
3  33  0  vel  -0.000330473278989  -0.000314496107269  -0.000123730329635
3  30  3  vel  -0.000318693829616  -4.22182599677e-05  -0.000267060495769
0  33  3  vel  0.00032273478292  1.02285663322e-05  6.49898370431e-05
6  30  0  vel  0.000193676738141  -0.000335594471684  -0.00046079637242
9  33  0  vel  -0.000188094960042  0.000107210957619  0.000236859003871
9  30  3  vel  -0.000503201066761  1.63588721279e-06  0.000163109026944
6  33  3  vel  0.000403732255251  0.00048255286401  0.000115000781943
12  30  0  vel  -0.000270999078385  -0.0002956068414  0.000217414044865
15  33  0  vel  -0.000148096872369  -4.23996012905e-05  -0.000304129167209
15  30  3  vel  -0.000471871716237  -0.000324584466405  -7.40473510177e-05
12  33  3  vel  -0.000274029073324  -3.82377959915e-05  0.000396428858194
18  30  0  vel  -0.00017391326003  -0.000392595563106  -6.08504784328e-05
21  33  0  vel  -0.000264998831196  0.000192716317952  0.000201305121006
21  30  3  vel  7.53644763059e-05  0.000282438302042  -0.000219513530339
18  33  3  vel  -0.000407333133961  0.000510789220567  -9.09687089513e-06
24  30  0  vel  0.000459063526384  0.000118130143392  0.000100782914516
27  33  0  vel  -0.000379058306064  2.97010686909e-05  0.000172806764724
27  30  3  vel  -0.000189653989115  -2.35452476537e-06  0.000336001917341
24  33  3  vel  -0.000148254871614  0.000312842022924  -4.55382583525e-05
30  30  0  vel  0.000171435790999  0.00019551785607  0.000118575538761
33  33  0  vel  -0.000404760052197  -0.000400871357682  0.000345255670563
33  30  3  vel  -0.000175063065772  0.000354185595739  0.00033969707176
30  33  3  vel  -0.000265649979728  0.000288224381418  -0.000319973867799
0  0  6  vel  0.000178076864389  0.000414845528827  0.00021562592434
3  3  6  vel  -9.36891321098e-05  0.000128647299408  0.000232840883574
3  0  9  vel  0.00020757642092  0.000446205240689  0.000399688570804
0  3  9  vel  0.00041884764724  -0.000381945614093  0.000295902784568
6  0  6  vel  0.000310247322465  -0.000118651771063  -0.000304840145353
9  3  6  vel  -0.000378341629794  3.19393700698e-05  -0.000344037874745
9  0  9  vel  0.000176372480086  -0.000130548687427  0.000459349237445
6  3  9  vel  -0.000442641658637  0.000195198293739  -0.000234416986004
12  0  6  vel  4.86588935207e-06  -0.000364902650564  -0.000286406866884
15  3  6  vel  0.000327649041218  0.000310746070925  -0.000146962535099
15  0  9  vel  -0.000390407099529  -2.9591129322e-05  0.00020210011016
12  3  9  vel  0.000390229119076  0.000344042031197  0.000465121108661
18  0  6  vel  0.000221679770661  -0.000366855971385  2.2144414971e-06
21  3  6  vel  -0.000111588670622  0.000364597591835  -0.000292089404696
21  0  9  vel  0.000161175811887  0.000371518860817  -0.000381406003149
18  3  9  vel  0.000370262667833  -3.69472919378e-05  7.2075916988e-06
24  0  6  vel  -0.000492291568221  -0.000297253530377  -0.000361873122536
27  3  6  vel  0.000489278608156  0.000132382832331  -0.000209491021395
27  0  9  vel  0.000443396317739  -0.000263127400531  0.000152774159992
24  3  9  vel  0.000324671629043  0.000448295308566  0.000402218418693
30  0  6  vel  -0.000215866362118  1.71720511317e-05  0.00034905449179
33  3  6  vel  0.000446291545222  0.000225201841556  0.000238897774137
33  0  9  vel  -0.000359251881333  -0.000271718573921  0.000276200144411
30  3  9  vel  0.000348817673007  -0.000178360769189  -0.000255658100766
0  6  6  vel  0.000279329709495  0.000102593444851  -9.41479547152e-05
3  9  6  vel  0.00010101624783  -0.000126912513485  0.000354247550706
3  6  9  vel  0.000414719470833  0.000486275460372  0.000458822396644
0  9  9  vel  -0.000265050178345  0.000333303091798  -0.000383715243451
6  6  6  vel  -0.000305163172988  -0.000444749482973  -0.000487913951448
9  9  6  vel  -0.000328691344946  -0.000472880056663  0.000410498028064
9  6  9  vel  0.000445721061166  -0.000330718854833  0.000193852638906
6  9  9  vel  0.00026878702758  -0.000458478311726  -0.000405326696152
12  6  6  vel  -0.000233499203796  -0.000282395534001  0.000469050205393
15  9  6  vel  2.18398468242e-05  -9.98404624432e-05  -0.000270344933278
15  6  9  vel  0.000318000799504  -0.000271143949344  -0.000101867715004
12  9  9  vel  -0.000183392478709  -0.00014087205485  -0.000430017109907
18  6  6  vel  0.000276138622536  -0.000340354449262  -0.000175474445283
21  9  6  vel  0.000120352326055  -0.000304819369321  -6.64824313072e-05
21  6  9  vel  0.000418708994422  0.000298451404122  -4.62949004759e-05
18  9  9  vel  -0.000502508614416  -0.000403257311674  0.000387659471304
24  6  6  vel  -3.49866187728e-05  0.000224306741957  0.000248633515462
27  9  6  vel  -0.000313912540031  3.06507058847e-05  7.61060640087e-05
27  6  9  vel  0.000358537030295  -0.000408387942169  0.000464887699102
24  9  9  vel  0.000313078573271  0.00029799977502  0.000391801292274
30  6  6  vel  0.000329694791488  -0.000431570120217  0.000230406901861
33  9  6  vel  0.000446356617314  0.000315290191301  -4.58832091881e-05
33  6  9  vel  0.00039531697835  -0.000452042110536  0.00038502715577
30  9  9  vel  -0.00011886800365  0.000457401630222  -9.53154950715e-05
0  12  6  vel  -0.000453846563346  -0.00045649051101  -0.000114444402312
3  15  6  vel  0.000195248094849  -1.8838445352e-05  0.000278363156047
3  12  9  vel  -0.000429843359455  -0.000473124765735  0.000311985910544
0  15  9  vel  -0.000346799059665  0.000278565987479  -6.89140053491e-05
6  12  6  vel  -0.000305623385495  -0.000150914585976  0.000389897246005
9  15  6  vel  0.000442895175282  0.000346376131456  -0.000448788373695
9  12  9  vel  -8.89014097611e-05  0.000309631729737  0.000192293079416
6  15  9  vel  0.00015030683018  0.000347796376392  0.000338967047681
12  12  6  vel  -0.000492224924506  -0.000180750919315  -0.000283778728323
15  15  6  vel  0.00034132802715  0.000394028820869  -0.000405531615085
15  12  9  vel  0.000336741537922  -0.000419143802565  0.000335238469993
12  15  9  vel  6.70036355898e-05  0.00026275228239  9.83976479627e-05
18  12  6  vel  -0.000325100720488  -0.000339953599974  -0.000463448653589
21  15  6  vel  0.00039603952846  -0.000351082176538  0.000167709668253
21  12  9  vel  0.000451180586991  0.000101905154525  0.000380696303135
18  15  9  vel  0.000353708642035  -0.000269266015937  0.000349631332902
24  12  6  vel  0.000105476983882  -0.000423695200633  0.000111842970577
27  15  6  vel  -0.000154684093267  -0.0003602067464  0.000358545968004
27  12  9  vel  0.000400580424743  -0.000304190180043  0.000472518617149
24  15  9  vel  0.000107894047403  5.67588522223e-05  0.000311998541941
30  12  6  vel  -0.000134503172317  -0.000388938314093  0.000188256559965
33  15  6  vel  -0.000451728572646  1.53382110158e-05  -0.00036494693037
33  12  9  vel  1.02843389531e-05  0.000380931574577  0.00025627894029
30  15  9  vel  -0.000275281573833  -1.38692573714e-05  -0.000505072792119
0  18  6  vel  0.000313227804983  -0.000204597768486  0.000353552671996
3  21  6  vel  -0.000224745556032  0.000317728660761  -0.000209237847619
3  18  9  vel  -0.000319403593644  7.17174913287e-05  -0.000176310695255
0  21  9  vel  0.000115595421156  3.21450699075e-05  0.000102424356806
6  18  6  vel  0.000112047799246  -0.000381615871031  -0.000183575456543
9  21  6  vel  0.000453306709658  -0.000293170466969  1.88482457185e-05
9  18  9  vel  0.000457987713083  0.00010134563818  9.10992100669e-06
6  21  9  vel  0.000369229389753  -0.000342420655861  0.000223032212511
12  18  6  vel  -5.99147223396e-05  -0.000250173158345  9.82285422103e-05
15  21  6  vel  -0.00015652615975  -0.000208890408681  0.000464787495192
15  18  9  vel  -0.000367470231069  9.62846792155e-05  0.000253729252009
12  21  9  vel  2.5974967719e-05  0.000152232781148  0.000220598647186
18  18  6  vel  0.000185863721701  -0.000180202703886  -0.000102126829448
21  21  6  vel  0.000479562624506  0.000419110734557  -0.000356699951679
21  18  9  vel  0.000123447919766  -0.000463248184966  -0.000286321148259
18  21  9  vel  -0.000238834658825  0.000366660019157  0.000249463924774
24  18  6  vel  -0.000407319607165  -0.000265444224158  0.00035347369831
27  21  6  vel  0.000455100330629  -0.000255132219805  4.82826170625e-05
27  18  9  vel  0.000397358316581  -0.000264933137436  -8.88965994887e-05
24  21  9  vel  4.56519478538e-05  -0.000317605562382  -0.000198270114923
30  18  6  vel  0.000360448444918  -0.000397748403812  -0.000356909251341
33  21  6  vel  -0.00038351655827  0.000368229756107  -0.000464581624323
33  18  9  vel  0.000422188359401  -0.000434981880189  9.29209319603e-05
30  21  9  vel  -4.30617265336e-05  -1.09570658985e-05  0.000268370242959
0  24  6  vel  0.000220423037099  -0.000413632356647  -0.000366673144946
3  27  6  vel  0.000101567041973  9.8079823674e-05  0.000317372759922
3  24  9  vel  -0.000132069781306  0.000365931873734  5.4463565336e-05
0  27  9  vel  -9.15886591836e-05  0.000306054794705  0.000289444813858
6  24  6  vel  0.000157591458498  0.00034399025504  -0.000405080746792
9  27  6  vel  -0.000114141576453  -0.00039180154833  0.000237637793583
9  24  9  vel  -0.00046060046036  0.000438690110992  -0.000459807046497
6  27  9  vel  0.000382252799223  -0.000238050040483  0.000125072798635
12  24  6  vel  0.000408228781585  -0.000216280868467  -0.000306537565074
15  27  6  vel  0.000196896210109  -0.000419158040634  9.59392432431e-05
15  24  9  vel  -0.00049679798788  0.000235303094728  0.000405924841315
12  27  9  vel  -0.000143876793191  -0.000369589124993  0.000230704179676
18  24  6  vel  0.000424813295833  -0.000475121068075  -0.000121783163518
21  27  6  vel  0.000292821063874  4.30876430889e-05  0.000359420437428
21  24  9  vel  4.41133227695e-05  -8.42412013578e-05  -2.75037051671e-05
18  27  9  vel  0.000197520488708  3.73092409699e-05  -0.000414665874984
24  24  6  vel  0.000364717383193  9.62369225439e-05  0.000454661184851
27  27  6  vel  4.79451653627e-05  8.8525195616e-05  0.000305269155323
27  24  9  vel  0.000169045367953  0.000162810273826  0.00036315658956
24  27  9  vel  -0.000387811536037  0.000440176998241  0.000444427422816
30  24  6  vel  -0.000339001736085  -0.000140575674771  -0.00046664868473
33  27  6  vel  -0.000197233238491  6.76470368864e-05  -0.000345113186136
33  24  9  vel  0.000168023573046  5.03345991962e-05  -0.000277542518097
30  27  9  vel  -0.000222409627587  0.000438123804845  5.80686783509e-05
0  30  6  vel  0.000284846968968  0.000501968561768  0.000271681098496
3  33  6  vel  -0.00033441350466  -0.000301700256883  0.000170368002249
3  30  9  vel  -3.12240434719e-05  0.000236476069637  4.85478595732e-05
0  33  9  vel  -0.000162602374308  3.31595095461e-05  9.12800317701e-05
6  30  6  vel  0.000478521556075  -1.72950516572e-05  0.000125144832039
9  33  6  vel  -0.000388262420219  -0.000112785249658  -5.68896113709e-05
9  30  9  vel  6.91251840546e-05  -0.000209201956344  0.00024649749246
6  33  9  vel  -8.52318415259e-05  -0.0002377903802  0.000474869918334
12  30  6  vel  0.000486658839433  0.000259375693024  -0.000451554267804
15  33  6  vel  -0.000410681292053  0.000438681738351  0.000403052294174
15  30  9  vel  -0.000251017533863  0.000339055213751  -5.13196789402e-05
12  33  9  vel  0.000350196387476  -8.86078975505e-05  -0.000157349726383
18  30  6  vel  -0.000345304448893  0.000309031389993  0.000138166129656
21  33  6  vel  -0.000319385723037  0.000372068770776  -0.000171274142473
21  30  9  vel  0.00046435969739  -0.000187593667918  0.000121651553783
18  33  9  vel  0.000111330427593  -0.00039554148161  -0.000397565404929
24  30  6  vel  -0.000254658386689  0.000365518903371  0.000138718863208
27  33  6  vel  -6.17977318584e-05  0.000216591891879  4.67507014002e-05
27  30  9  vel  -0.000260090381779  0.000395603947975  -2.54064955894e-05
24  33  9  vel  0.000320080887134  -0.000436352122476  0.000145560014953
30  30  6  vel  -0.000494066411503  -1.96951572625e-05  -7.02975346942e-05
33  33  6  vel  -0.000476299877221  -0.000483890920889  9.31266639949e-06
33  30  9  vel  -0.000237542047591  1.28541271136e-05  3.53440934393e-05
30  33  9  vel  -0.000287492494133  0.000490747530519  0.000352531853336
0  0  12  vel  -0.00032081344241  0.00046226879779  0.000417326425972
3  3  12  vel  -0.000200901351935  -0.000364058499017  -0.000148848198572
3  0  15  vel  3.17529581223e-05  -8.41789238839e-05  1.56154852912e-05
0  3  15  vel  0.000318212144191  0.00027019127134  -0.000321804257168
6  0  12  vel  -0.000477927856739  0.00025485010686  -0.000241129102532
9  3  12  vel  -0.000404905475657  0.000165731483319  0.000284587175099
9  0  15  vel  -0.000194899767254  0.000146743880047  0.000297842681405
6  3  15  vel  -0.000203990892352  -0.000103891970959  -0.000120723229073
12  0  12  vel  4.27296335984e-05  -0.00025760388915  -0.000346353215074
15  3  12  vel  0.000402001802948  0.000502612099403  4.82566925329e-05
15  0  15  vel  -3.83552523542e-05  -0.00019193230296  0.000463429301544
12  3  15  vel  -0.000112329665683  -4.63666478249e-05  0.000261466737566
18  0  12  vel  -0.000395286050295  0.000263305065479  0.000356818202835
21  3  12  vel  0.000465802313296  -2.74276545642e-05  0.000434801076333
21  0  15  vel  0.000450679709508  -0.00028771619671  0.000363141959871
18  3  15  vel  0.000369885584955  -0.000353109329507  0.000219012377589
24  0  12  vel  -0.000381533248104  -0.000419938947807  1.77504661524e-05
27  3  12  vel  7.20161906342e-05  0.000208186575598  0.000283142177691
27  0  15  vel  -0.00039509167287  -0.000484106800991  0.000395329055099
24  3  15  vel  0.000409684089641  0.000157202100915  0.000442955946161
30  0  12  vel  1.93479604209e-05  0.000169313925339  0.000279991389324
33  3  12  vel  -0.000160741148329  0.000203856816042  -0.000229488108298
33  0  15  vel  -0.000452486523286  0.000322979870648  -0.000267044858053
30  3  15  vel  -0.000418020452357  -0.000474031241956  0.000130514759953
0  6  12  vel  -0.000457932186774  0.000123340170973  0.000354403176862
3  9  12  vel  1.95933330979e-05  0.000278979254596  -0.000148181775437
3  6  15  vel  0.000192965123964  -0.000252754188884  -0.000127284248317
0  9  15  vel  0.00016529370148  0.000333985609226  4.79937245056e-05
6  6  12  vel  -0.0004437456345  -0.000294914379708  -0.000187322066532
9  9  12  vel  -0.0002941119368  -0.000368610879407  -0.000388753593108
9  6  15  vel  0.000319450794512  1.3042636774e-05  0.00019289101476
6  9  15  vel  0.000164023023331  5.28425443768e-05  -0.000276797036224
12  6  12  vel  0.000263964461288  -0.00022150658844  0.000179678446044
15  9  12  vel  -0.000108812093871  -0.000137657693577  0.000404102195564
15  6  15  vel  0.000333843784067  5.36445205458e-05  0.000155498359136
12  9  15  vel  -5.43157782133e-05  -0.000485080701832  8.42306337195e-05
18  6  12  vel  0.000421529517722  -0.000468772529125  0.000198809731515
21  9  12  vel  0.000285642473117  -0.000178089588347  0.000287765058184
21  6  15  vel  2.61306307938e-05  -0.000242272861004  0.00040618856174
18  9  15  vel  0.000274159131839  0.000512008057134  0.000404323039619
24  6  12  vel  3.12565609085e-05  -0.000398500387147  5.10249158035e-05
27  9  12  vel  0.000322570832259  0.000265444731766  0.000189370207639
27  6  15  vel  0.000200938234679  0.000275401893361  -5.81932305056e-05
24  9  15  vel  0.000237921285633  -0.000369015115886  -0.000157707890906
30  6  12  vel  -0.00034350569947  0.000433263542509  -0.000338517005634
33  9  12  vel  -0.000367163528191  0.000233148381895  0.00032048554194
33  6  15  vel  -1.61470421846e-06  0.000105797385654  -0.000438743804553
30  9  15  vel  0.000129015474901  -0.000222132184435  -0.000298930317169
0  12  12  vel  -0.000406112382286  -4.71819559147e-05  -0.000394898252461
3  15  12  vel  0.000414727342499  -0.000385003769724  7.99750792388e-05
3  12  15  vel  0.000152485621599  -0.000165653847969  -0.000452613934938
0  15  15  vel  -0.000156097159584  -2.37328081134e-05  0.000312229935448
6  12  12  vel  -0.000259785746358  0.000497719898032  0.000118449953823
9  15  12  vel  -0.000508309474429  0.000452363183828  -0.000475905696628
9  12  15  vel  -0.00022519359746  -0.000187455427283  0.000437905290835
6  15  15  vel  0.000437140539574  -2.82681132892e-05  0.000359307675024
12  12  12  vel  0.00015607222704  -0.000100275011657  0.000454812937329
15  15  12  vel  -0.000412285882293  -0.000436630273509  0.000488567174437
15  12  15  vel  -0.000126569954553  0.000472315260075  -0.000336516931961
12  15  15  vel  0.000129990347784  0.000105303335827  0.000289965568652
18  12  12  vel  -0.00012228754042  0.00018921101489  -0.00050478125402
21  15  12  vel  0.000195217056353  0.000463075879512  -6.8147451208e-05
21  12  15  vel  -0.000468666011272  0.000364048260895  -0.000492489695413
18  15  15  vel  4.23099771795e-05  -0.000285721126713  -0.000227379265067
24  12  12  vel  -0.00013439932699  0.000352811776059  0.000332210918242
27  15  12  vel  0.000365435350688  0.000120176860563  0.000378295737679
27  12  15  vel  0.000150537570831  0.000211541241226  0.000464621824297
24  15  15  vel  -0.000141166018032  2.93848748573e-05  -0.000123571428915
30  12  12  vel  0.00034479394805  0.000438219205563  -0.000345688091578
33  15  12  vel  -0.000462207360133  -0.000475438219462  -0.000434254970431
33  12  15  vel  0.000304477052314  0.00024751420009  -9.55816142887e-05
30  15  15  vel  9.13793210504e-05  0.000484945894276  0.000191527919313
0  18  12  vel  0.000336779054979  0.000211405379288  0.00018834685326
3  21  12  vel  6.22525124671e-05  -0.000306687271074  -0.000349379477001
3  18  15  vel  -0.000281466721979  0.000404490455098  -0.000203049999254
0  21  15  vel  0.000311197583074  -0.000204874736245  -0.000287131205923
6  18  12  vel  0.000196622561777  -4.73983203428e-07  -0.00017224208442
9  21  12  vel  0.000253412404782  6.34412168076e-05  0.000221729011167
9  18  15  vel  0.000115903190008  0.000186924600736  0.00020701028495
6  21  15  vel  -0.000381463213928  -0.000246452850019  0.000403595139543
12  18  12  vel  -0.000159620251937  -2.52254878876e-05  0.000314218808214
15  21  12  vel  4.91144824984e-05  -0.000330327975044  -0.00026167893981
15  18  15  vel  0.000448497561743  0.00016932391026  0.00044780795409
12  21  15  vel  0.000277201828274  0.000468113055242  0.000291086706185
18  18  12  vel  -0.000347316987127  -0.000397614361647  -0.000111219214461
21  21  12  vel  0.00020775137995  0.000376006720094  -0.000222328650866
21  18  15  vel  0.000450695222447  -2.69902364264e-05  -0.000242138789449
18  21  15  vel  -0.000313882162337  -0.00046236970447  0.000428204159322
24  18  12  vel  -3.00899969499e-05  0.000228408008708  -6.82798357619e-05
27  21  12  vel  0.000317081731608  0.000339334948089  -0.000367716217745
27  18  15  vel  -0.000368526156311  0.000413758788006  1.51825810704e-05
24  21  15  vel  6.74390993637e-05  -0.000447034577394  0.000246058341004
30  18  12  vel  -0.000441002164168  -0.000350010947253  0.000107450614362
33  21  12  vel  0.00028778020607  -0.000378031130694  -0.000149543428712
33  18  15  vel  0.000389959755204  -0.000168843319843  0.000135161202635
30  21  15  vel  0.000359299822916  0.000368927885547  0.000229518431303
0  24  12  vel  -0.000436071653152  0.000223665992398  -0.000484661194074
3  27  12  vel  0.000147172907198  -0.000137974892632  9.08292424559e-05
3  24  15  vel  -7.28462538077e-05  0.000186071495192  -8.10381980645e-05
0  27  15  vel  -0.000350532703183  -0.000250925185142  -0.000498146061013
6  24  12  vel  0.000315713135248  0.000419637137939  0.000461935187074
9  27  12  vel  -0.000134453722518  0.000442164465286  -0.000273876620253
9  24  15  vel  0.000172058318989  -0.000381015662605  -0.000131655586007
6  27  15  vel  -4.2561966898e-05  0.000359876621622  -0.000354749009088
12  24  12  vel  -0.000205144300255  -0.000421230644013  0.000386935223393
15  27  12  vel  -0.000164481495194  -0.000438297503869  -0.000435959022465
15  24  15  vel  -0.000235332703698  1.28993419906e-05  -0.000208307782104
12  27  15  vel  0.000258532816693  -0.000185530762988  -0.000332346259589
18  24  12  vel  -2.40010393045e-05  0.000200531173326  7.68203167176e-05
21  27  12  vel  0.000320042545711  -7.71781073381e-05  0.000259676485559
21  24  15  vel  -0.000376702111959  0.000490701161343  -0.000426794889585
18  27  15  vel  0.0002387666298  -0.000211412083945  0.000233280491609
24  24  12  vel  -0.000432557846131  6.91001059759e-05  -9.26052480406e-06
27  27  12  vel  -0.000284311093941  -0.00023268836277  -8.32580946817e-05
27  24  15  vel  0.000475640765744  -0.000262979103474  -0.000365532132439
24  27  15  vel  0.000210576286783  -0.000317543180694  -0.00015339939896
30  24  12  vel  -0.000188320140896  0.000336909585766  1.59300612368e-05
33  27  12  vel  -0.000416179820102  0.000354125658642  0.00033591258861
33  24  15  vel  0.000357553785706  0.00012705158699  -0.000493261576621
30  27  15  vel  0.000115820588458  -0.000197781335098  -0.000494157436095
0  30  12  vel  0.000112785116907  -3.24577040161e-05  0.000195338275119
3  33  12  vel  0.000148417022915  -0.000303266617859  -6.24247610779e-05