INPUT_PARAMETERS
#Parameters (1.General)
suffix			autotest
calculation     relax

nbands			8
symmetry		1
pseudo_dir	../../PP_ORB
orbital_dir	../../PP_ORB

#Parameters (2.Iteration)
ecutwfc			20
scf_thr				1e-9
scf_nmax			100

#Parameters (3.Relaxation)
relax_nmax           2
cal_force           1
force_thr_ev    0.01
relax_method     bfgs

#Parameters (4.Basis)
basis_type		lcao

#Parameters (5.Smearing)
smearing_method		gauss
smearing_sigma			0.002

#Parameters (6.Mixing)
mixing_type		broyden
mixing_beta		0.5

gamma_only		1

relax_new 0
