INPUT_PARAMETERS
#Parameters	(General)
suffix	            autotest
pseudo_dir	../../PP_ORB
orbital_dir	../../PP_ORB

#nbands              40
gamma_only          0


calculation         scf

smearing_method            gaussian
smearing_sigma             0.001
#Parameters (3.PW)
ecutwfc             10
scf_thr                 1e-6
scf_nmax               100


#cal_stress              1
#noncolin             1
lspinorb             1

#Parameters (LCAO)
basis_type lcao
ks_solver           scalapack_gvx
chg_extrap       second-order
out_dm             0
pw_diag_thr                0.00001

mixing_type         pulay
mixing_beta         0.7

soc_lambda 0.0
