INPUT_PARAMETERS
#Parameters (1.General)
suffix			autotest
calculation     scf
esolver_type    sdft
method_sto      2

nbands			10
nbands_sto		10
nche_sto		120
emax_sto		0
emin_sto		0
seed_sto        20000
pseudo_dir	../../PP_ORB
symmetry	    1
kpar            1
bndpar          2
out_chg         0
read_file_dir 		./

#Parameters (2.Iteration)
ecutwfc			20
scf_thr			1e-6
scf_nmax	    5


#Parameters (3.Basis)
basis_type		pw

#Parameters (4.Smearing)
smearing_method		fd
smearing_sigma			0.6

#Parameters (5.Mixing)
mixing_type		broyden
mixing_beta		0.4

cal_cond      1
cond_fwhm   8
cond_wcut        20
cond_dw          0.02
cond_dt          0.237464
cond_dtbatch     4
cond_nonlocal    1
