INPUT_PARAMETERS
#Parameters (1.General)
suffix		    fit
ntype               1
nbands              8
pseudo_type         upf

#Parameters (2.Methods)
calculation         scf

#Parameters (3.PW)
ecutwfc             50
dr2                 1e-8
niter		    100

#Parameters (5.LCAO)
basis_type          pw
#ks_solver           hpseps
gamma_only          0

#nstep               2
#force_thr_ev        0.001

#Parameters (6.Smearing) 
smearing            gaussian
sigma               0.02

#stress 1
#cell_factor         10
#stress_thr          1e-6
