INPUT_PARAMETERS
#Parameters (1.General)
suffix			autotest
calculation     scf

nbands			10
symmetry		1
pseudo_dir	../../PP_ORB
dft_functional  scan

#Parameters (2.Iteration)
ecutwfc			20
scf_thr				1e-9
scf_nmax			2


#Parameters (3.Basis)
basis_type		pw

#Parameters (4.Smearing)
smearing_method		fd
smearing_sigma		0.1

#Parameters (5.Mixing)
mixing_type		broyden
mixing_beta		0.7
mixing_gg0      0.0

nx                      24
ny                      24
nz                      3
pw_seed                 1

test_skip_ewald         1
