INPUT_PARAMETERS
#Parameters	(System)
suffix                  autotest
symmetry        0

nbands			4
stru_file		STRU
kpoint_file		KPT
pseudo_dir	../../PP_ORB
orbital_dir	../../PP_ORB
latname			sc
#Parameters (PW)
ecutwfc			25.0              # Rydberg
#Parameters (electronic)
basis_type		lcao 	
scf_thr			1e-10

calculation     	scf
out_wfc_lcao		1
