INPUT_PARAMETERS
#Parameters (1.General)
suffix                  autotest
calculation             scf
ntype                   2
nbands                  6
symmetry                0

#Parameters (2.Iteration)
ecutwfc                 100
scf_thr                     1e-8
scf_nmax                   50

#Parameters (3.Basis)
basis_type              lcao 

#Parameters (4.Smearing)
smearing_method                gaussian
smearing_sigma                   0.02

#Parameters (5.Mixing)
mixing_type             pulay
mixing_beta             0.4

#Parameters (6.Deepks)
cal_force			1
cal_stress 1
