ATOMIC_SPECIES
H 1.008 H_ONCV_PBE-1.0.upf
O 15.9994 O_ONCV_PBE-1.0.upf

LATTICE_CONSTANT
1

LATTICE_VECTORS
10 0 0
0 10 0
0 0 10

ATOMIC_POSITIONS
Cartesian    # Cartesian(Unit is LATTICE_CONSTANT)

H
0.0
2
0.000 0.000 1.815 0 0 0
0.057 1.710 -0.605 0 0 0
O
0.0
1
0.000 0.000 0.000 0 0 0

