INPUT_PARAMETERS
#Parameters     (General)
suffix          DIA-50

calculation     scf
esolver_type    ksdft
pseudo_dir      ./
nbands          45
symmetry        1
cal_force       1
cal_stress      1
kpar            6

#Parameters (Accuracy)
ecutwfc         50
scf_thr         1e-8
scf_nmax        100
basis_type      pw
ks_solver       cg
smearing_method gauss
smearing_sigma  0.01
mixing_type     broyden
mixing_beta     0.7

stru_file       STRU-001
