ATOMIC_SPECIES
Si 28.0855 Si_ONCV_PBE-1.2.upf upf201

LATTICE_CONSTANT
1.88972612546

LATTICE_VECTORS
0 2.8107498626 2.8107498626 #latvec1
2.8107498626 0 2.8107498626 #latvec2
2.8107498626 2.8107498626 0 #latvec3

ATOMIC_POSITIONS
Direct

Si #label
0 #magnetism
2 #number of atoms
0.875  0.875  0.875  m  0  0  0
0.125  0.125  0.125  m  0  0  0
