INPUT_PARAMETERS
#Parameters	(General)
suffix          autotest
pseudo_dir		./
ntype			1	
nbands			12
calculation		md

#Parameter (Accuracy)
ecutwfc			50
scf_nmax			30

smearing_method		gaussian
smearing_sigma			0.02

basis_type		lcao
gamma_only		0
relax_nmax			1	

scf_thr_rho			1.0e-6

tddft			1

md_type		    0
md_dt			0.01
md_tfirst       0

val_elec_01		5
vext			1
vext_dire		2
