INPUT_PARAMETERS
#Parameters	(General)
suffix          autotest
pseudo_dir		./
ntype			1	
nbands			12
calculation		md

#Parameter (Accuracy)
ecutwfc			50
niter			30

smearing		gaussian
sigma			0.02

basis_type		lcao
gamma_only		0
nstep			1	

dr2			1.0e-6

tddft			1

md_type		    0
md_dt			0.01
md_tfirst       0

val_elec_01		5
vext			1
vext_dire		2
