INPUT_PARAMETERS
#Parameters	(General)
suffix          autotest
pseudo_dir	../../PP_ORB
orbital_dir	../../PP_ORB
	
nbands			12
calculation		md
esolver_type    tddft

#Parameter (Accuracy)
ecutwfc			50
scf_nmax			30

smearing_method		gaussian
smearing_sigma			0.02

basis_type		lcao
gamma_only		0
md_nstep			1	

scf_thr			1.0e-6

md_type		    nve
md_dt			0.01
md_tfirst       0

val_elec_01		5
vext			1
vext_dire		2
