ATOMIC_SPECIES
N 14.0067 N.PBE.UPF

NUMERICAL_ORBITAL
N_pbe_6.0au_50Ry_2s2p1d

LATTICE_CONSTANT
15

LATTICE_VECTORS
1 0 0 #latvec1
0 1 0 #latvec2
0 0 1 #latvec3

ATOMIC_POSITIONS
Direct

N #label
0 #magnetism
2 #number of atoms
0.5 0.630168979425 0.5 0 1 0
0.5 0.490293064595 0.5 0 1 0
