INPUT_PARAMETERS
#Parameters (1.General)
suffix			autotest
calculation     scf

pseudo_dir	../../PP_ORB

#Parameters (2.Iteration)
ecutwfc			50
scf_thr 2e-6
#pseudo_mesh 1

nspin 2

dft_functional scan

#Parameters (3.Basis)
basis_type		pw

#Parameters (4.Smearing)
smearing_method		gauss
smearing_sigma			0.002

#Parameters (5.Mixing)
mixing_type		broyden
mixing_beta		0.7

cal_force 1
