ATOMIC_SPECIES
Al 13 Al.pz-vbc.UPF
LATTICE_CONSTANT
6.5  // add lattice constant(a.u.)

LATTICE_VECTORS
-0.5 0.5 0.5
0.5 -0.5 0.5
0.5 0.5 -0.5

ATOMIC_POSITIONS
Direct  //Cartesian or Direct coordinate.

Al
0.0     //starting magnetism
1       //number of atoms
0.00 0.00 0.00  0 0 0
