ATOMIC_SPECIES
Al 13 Al.pz-vbc.UPF
LATTICE_CONSTANT
10.0  // add lattice constant(a.u.)

LATTICE_VECTORS
0.0 0.5 0.5
0.5 0.0 0.5
0.5 0.5 0.0

ATOMIC_POSITIONS
Direct  //Cartesian or Direct coordinate.

Al
0.0     //starting magnetism
2       //number of atoms
0 0 0 0 0 0
0.25 0.25 0.25 0 0 0
