ATOMIC_SPECIES
Al 13 Al.pz-vbc.UPF

NUMERICAL_ORBITAL

LATTICE_CONSTANT
7.5 	

LATTICE_VECTORS
0.0 0.5 0.5
0.5 0.0 0.5
0.5 0.5 0.0

ATOMIC_POSITIONS
Direct  //Cartesian or Direct coordinate.

Al
0.2     //starting magnetism
1       //number of atoms
0 0 0 0 0 0

