ATOMIC_SPECIES
Al 26.98 Al.pz-vbc.UPF
As 74.9216 As.pz-bhs.UPF

LATTICE_CONSTANT
10.67   

LATTICE_VECTORS
0.0 0.5 0.5
0.5 0.0 0.5
0.5 0.5 0.0

ATOMIC_POSITIONS
Direct
Al
0
1
0.0    0.0    0.0  0 0 0

As
0
1
0.25   0.25   0.25 0 0 0 
