ATOMIC_SPECIES
Al 26.98 Al.pz-vbc.UPF
P  30.973 P.pz-bhs.UPF

LATTICE_CONSTANT
10.25 

LATTICE_VECTORS
0.0 0.5 0.5
0.5 0.0 0.5
0.5 0.5 0.0

ATOMIC_POSITIONS
Direct
Al
0
1
0.0    0.0    0.0  0 0 0

P
0
1
0.25   0.25   0.25 0 0 0 
