ATOMIC_SPECIES
Al 26.98 Al.pz-vbc.UPF
Sb 121.75 Sb.pz-bhs.UPF

LATTICE_CONSTANT
11.49   // add lattice constant 6.76

LATTICE_VECTORS
0.0 0.5 0.5
0.5 0.0 0.5
0.5 0.5 0.0

ATOMIC_POSITIONS
Direct
Al
0
1
0.0    0.0    0.0  0 0 0

Sb
0
1
0.25   0.25   0.25 0 0 0 
