ATOMIC_SPECIES
Ba 56 Ba.LDA.UPF
Fe 26 Fe.LDA.UPF
As 33 As.pz-bhs.UPF

NUMERICAL_ORBITAL

LATTICE_CONSTANT
1.0  // add lattice constant(a.u.)

LATTICE_VECTORS
7.4880 0.0000 0.0000
0.0000 7.4880 0.0000
3.7440 3.7440 12.2990500
  
ATOMIC_POSITIONS
Cartesian //Cartesian or Direct coordinate.
Ba
0.000
1
0.0000   0.0000   0.0000000 0 0 0

Fe
0.000
2
0.0000   3.7440   6.1495250 0 0 0
3.7440   0.0000   6.1495250 0 0 0

As
0.000
2
0.0000   0.0000   8.72002645 0 0 0
3.7440   3.7440   3.5790235 0 0 0
