USE_XYZ

ATOMIC_SPECIES
B 10.00 B.pz-vbc.UPF
N 14.00 N.pz-vbc.UPF

NUMERICAL_ORBITAL

LATTICE_CONSTANT
1.88973 #lattice scaling factor (Bohr)

LATTICE_VECTORS
11.3660 0 0
0 4.3545 0 
0 0 11.3660

ATOMIC_POSITIONS
Cartesian_angstrom
B
0
20
B 8.01896 0 4.00948
B 7.82272 2.17724 5.24848
B 7.25322 0 6.36619
B 6.36619 2.17724 7.25322
B 5.24848 0 7.82272
B 4.00948 2.17724 8.01896
B 2.77048 0 7.82272
B 1.65277 2.17724 7.25322
B 0.765742 0 6.36619
B 0.196238 2.17724 5.24848
B 0 0 4.00948
B 0.196238 2.17724 2.77048
B 0.765742 0 1.65277
B 1.65277 2.17724 0.765742
B 2.77048 0 0.196238
B 4.00948 2.17724 0
B 5.24848 0 0.196238
B 6.36619 2.17724 0.765742
B 7.25322 0 1.65277
B 7.82272 2.17724 2.77048

N
0
20
N 8.01896 1.45 4.00948
N 7.82272 3.62724 5.24848
N 7.25322 1.45 6.36619
N 6.36619 3.62724 7.25322
N 5.24848 1.45 7.82272
N 4.00948 3.62724 8.01896
N 2.77048 1.45 7.82272
N 1.65277 3.62724 7.25322
N 0.765742 1.45 6.36619
N 0.196238 3.62724 5.24848
N 0 1.45 4.00948
N 0.196238 3.62724 2.77048
N 0.765742 1.45 1.65277
N 1.65277 3.62724 0.765742
N 2.77048 1.45 0.196238
N 4.00948 3.62724 0
N 5.24848 1.45 0.196238
N 6.36619 3.62724 0.765742
N 7.25322 1.45 1.65277
N 7.82272 3.62724 2.77048
