USE_XYZ

ATOMIC_SPECIES
B 10.00 B.pz-vbc.UPF
N 14.00 N.pz-vbc.UPF

NUMERICAL_ORBITAL

LATTICE_CONSTANT
1.88973 #lattice scaling factor (Bohr)

LATTICE_VECTORS
25 0 0
0 2.5118 0 
0 0 25

ATOMIC_POSITIONS
Cartesian_angstrom
B
0
20
B 13.8639 0 6.93196
B 13.5246 1.25588 9.07405
B 12.54 0 11.0065
B 11.0065 1.25588 12.54
B 9.07405 0 13.5246
B 6.93196 1.25588 13.8639
B 4.78987 0 13.5246
B 2.85746 1.25588 12.54
B 1.32389 0 11.0065
B 0.339274 1.25588 9.07405
B 0 0 6.93196
B 0.339274 1.25588 4.78987
B 1.32389 0 2.85746
B 2.85746 1.25588 1.32389
B 4.78987 0 0.339274
B 6.93196 1.25588 0
B 9.07405 0 0.339274
B 11.0065 1.25588 1.32389
B 12.54 0 2.85746
B 13.5246 1.25588 4.78987

N
0
20
N 13.7123 0 8.37401
N 12.9348 1.25588 10.3987
N 11.5697 0 12.084
N 9.75068 1.25588 13.265
N 7.65572 0 13.826
N 5.48991 1.25588 13.7123
N 3.46526 0 12.9348
N 1.77995 1.25588 11.5697
N 0.598961 0 9.75068
N 0.037887 1.25588 7.65572
N 0.151652 0 5.48991
N 0.929121 1.25588 3.46526
N 2.29419 0 1.77995
N 4.11324 1.25588 0.598961
N 6.2082 0 0.037887
N 8.37401 1.25588 0.151652
N 10.3987 0 0.929121
N 12.084 1.25588 2.29419
N 13.265 0 4.11324
N 13.826 1.25588 6.2082
