ATOMIC_SPECIES
C 12.011 C.pz-vbc.UPF

NUMERICAL_ORBITAL

LATTICE_CONSTANT
37  // add lattice constant(a.u.)

LATTICE_VECTORS
1	0	0
0	1	0
0	0	1

ATOMIC_POSITIONS
Cartesian_angstrom_center_xyz	//Cartesian or Direct coordinate.
C 
0.300	//starting magnetism
60		//number of atoms
-3.45975 0.71223 -4.17587	0 0 0
-4.6397 1.44078 -3.72814 0 0 0
-4.1734 2.64914 -3.01671 0 0 0 
-2.71712	2.63783	-3.01734 0 0 0
-2.26803	1.42282	-3.72893  0 0 0
-4.21253	-2.58327	-3.0196 0 0 0
-4.65882	-1.36899	-3.73089 0 0 0
-3.46907	-0.66197	-4.17801 0 0 0
-2.29023	-1.38629	-3.72899 0 0 0
-2.75245	-2.59292	-3.01741 0 0 0
-6.94116	0.05339	-1.38546 0 0 0
-6.48842	1.2331	-2.10383 0 0 0
-5.78134	0.77169	-3.31304 0 0 0
-5.7887	-0.68434	-3.31378 0 0 0
-6.50467	-1.13456	-2.10443 0 0 0
-4.85294	3.0718	0.48806 0 0 0
-4.12468	3.50538	-0.6996 0 0 0
-4.84847	3.06734	-1.88104 0 0 0
-6.06212	2.36282	-1.42738 0 0 0
-6.06394	2.3621	0.02794 0 0 0
-0.82864	2.32416	0.02798 0 0 0
-0.83107	2.32488	-1.42866 0 0 0
-2.0341	3.04854	-1.8817 0 0 0
-2.75176	3.49844	-0.70094 0 0 0
-2.0356	3.0436	0.48409 0 0 0
-0.43997	-1.17957	-2.10599 0 0 0
-1.14911	-0.72002	-3.31402 0 0 0
-1.13718	0.73625	-3.31311 0 0 0
-0.42382	1.1863	-2.10273 0 0 0
0.01172	3E-5	-1.38503 0 0 0
-4.2123	-2.58581	1.61962 0 0 0
-4.66235	-1.36996	2.33164 0 0 0
-3.46988	-0.65903	2.77906 0 0 0
-2.28854	-1.38763	2.33141 0 0 0
-2.75599	-2.59765	1.61875 0 0 0
-6.10043	-2.27391	-1.42633 0 0 0
-6.09703	-2.27271	0.03017 0 0 0
-4.89414	-2.99686	0.48325 0 0 0
-4.17545	-3.44594	-0.69664 0 0 0 
-4.89031	-2.9915	-1.88111 0 0 0
-6.48881	1.23117	0.70849 0 0 0
-5.77982	0.77236	1.91597 0 0 0
-5.79282	-0.68318	1.91497 0 0 0
-6.50569	-1.13451	0.70414 0 0 0
-6.94021	0.05143	-0.01338 0 0 0
-2.71422	2.63243	1.62175 0 0 0
-2.26878	1.42029	2.33348 0 0 0
-3.45947	0.71557	2.7809 0 0 0
-4.63834	1.43816	2.33078 0 0 0
-4.17691	2.64697	1.62294 0 0 0
0.01344	-0.00165	-0.01301 0 0 0
-0.43904	-1.18095	0.70482 0 0 0
-1.14655	-0.71871	1.91526 0 0 0
-1.13888	0.73667	1.91591 0 0 0
-0.42313	1.18579	0.70697 0 0 0
-2.07685	-3.01759	-1.88359 0 0 0
-2.80281	-3.45482	-0.69865 0 0 0
-2.08055	-3.01574	0.48274 0 0 0
-0.8662	-2.31124	0.02824 0 0 0
-0.86415	-2.31095	-1.4267 0 0 0

