ATOMIC_SPECIES
C 6 C.pz-vbc.UPF
LATTICE_CONSTANT
1.0  // add lattice constant(a.u.)

LATTICE_VECTORS
20 0 0
0 20 0
0 0 8.0559056799

ATOMIC_POSITIONS
Cartesian_angstrom  //Cartesian or Direct coordinate.

C
0.0     //starting magnetism
24      //number of atoms
2.370526    -0.000000    -0.716610 0 0 0
2.370526    -0.000000    -2.137610 0 0 0
2.052935     1.185263     1.421000 0 0 0
2.052935     1.185263    -0.000000 0 0 0 
1.185263     2.052935    -0.716610 0 0 0
1.185263     2.052935    -2.137610 0 0 0 
0.000000     2.370526     1.421000 0 0 0
0.000000     2.370526    -0.000000 0 0 0
-1.185263     2.052935    -0.716610 0 0 0
-1.185263     2.052935    -2.137610 0 0 0
-2.052935     1.185263     1.421000 0 0 0
-2.052935     1.185263    -0.000000 0 0 0
-2.370526    -0.000000    -0.716610 0 0 0
-2.370526    -0.000000    -2.137610 0 0 0
-2.052935    -1.185263     1.421000 0 0 0
-2.052935    -1.185263    -0.000000 0 0 0
-1.185263    -2.052935    -0.716610 0 0 0
-1.185263    -2.052935    -2.137610 0 0 0
0.000000    -2.370526     1.421000 0 0 0
0.000000    -2.370526    -0.000000 0 0 0
1.185263    -2.052935    -0.716610 0 0 0
1.185263    -2.052935    -2.137610 0 0 0
2.052935    -1.185263     1.421000 0 0 0
2.052935    -1.185263    -0.000000 0 0 0
