ATOMIC_SPECIES
C  12.011  C.pz-vbc.UPF
O  15.9994 O.pz-mt.UPF

NUMERICAL_ORBITAL


LATTICE_CONSTANT
15   // add lattice constant

LATTICE_VECTORS
1   0   0
0   1   0
0   0   1

ATOMIC_POSITIONS
Cartesian_angstrom //Cartesian or Direct coordinate.

C       //Element Label
0.0     //starting magnetism
1       //number of atoms
0.000   0.000   0.000   1 1 1

O       //Element Label
0.0     //starting magnetism
1       //number of atoms
1.1236  0.000   0.000   1   1   1

