ATOMIC_SPECIES
C 12.011 C.pz-vbc.UPF

NUMERICAL_ORBITAL

LATTICE_CONSTANT
6.60   // add lattice constant

LATTICE_VECTORS
0.5 0.5 0.0
0.5 0.0 0.5
0.0 0.5 0.5

ATOMIC_POSITIONS
Cartesian //Cartesian or Direct coordinate.
C		//Element Label
0		//starting magnetism
2		//number of atoms
0	0	0	0	0	0
0.25 0.25 0.25 0 0 0 
