ATOMIC_SPECIES
Si 28.0855 Si.pz-vbc.UPF
C 12.011 C.pz-vbc.UPF
H 1.0079 H.pz-vbc.UPF

LATTICE_CONSTANT
1.8897268777  // add lattice constant(a.u.)

LATTICE_VECTORS
9.2415299999999991    0.0000000000000000    0.0000000000000000
4.6207649999999996    8.0031649799999993    0.0000000000000000
0.0000000000000000    0.0000000000000000   55.0000000000000000
			   
ATOMIC_POSITIONS
Direct	//Cartesian or Direct coordinate.

Si
0.0		//starting magnetism
72		//number of atoms
  0.0000000000000000  0.0000000000000000  0.8492909090909109   0   0   0
  0.0000000000000000  0.0000000000000000  0.9409709090909075   0   0   0
  0.1111101473257392  0.1111097924661308  0.9867789090909085   0   0   0
  0.2222202946514784  0.2222195849322617  0.8950989090909118   0   0   0
  0.3333300871176093  0.0000000000000000  0.8492909090909109   0   0   0
  0.3333300871176093  0.0000000000000000  0.9409709090909075   0   0   0
  0.4444402344433485  0.1111097924661308  0.9867789090909085   0   0   0
  0.5555503817690877  0.2222195849322617  0.8950989090909118   0   0   0
  0.6666601742352185  0.0000000000000000  0.8492909090909109   0   0   0
  0.6666601742352185  0.0000000000000000  0.9409709090909075   0   0   0
  0.7777703215609577  0.1111097924661308  0.9867789090909085   0   0   0
  0.8888804688866969  0.2222195849322617  0.8950989090909118   0   0   0
  0.0000003548596084  0.3333293773983925  0.8492909090909109   0   0   0
  0.0000003548596084  0.3333293773983925  0.9409709090909075   0   0   0
  0.1111098774325185  0.4444404193701885  0.9867789090909085   0   0   0
  0.2222200247582578  0.5555502118363194  0.8950989090909118   0   0   0
  0.3333304419772176  0.3333293773983925  0.8492909090909109   0   0   0
  0.3333304419772176  0.3333293773983925  0.9409709090909075   0   0   0
  0.4444399645501278  0.4444404193701885  0.9867789090909085   0   0   0
  0.5555501118758670  0.5555502118363194  0.8950989090909118   0   0   0
  0.6666605290948269  0.3333293773983925  0.8492909090909109   0   0   0
  0.6666605290948269  0.3333293773983925  0.9409709090909075   0   0   0
  0.7777700516677371  0.4444404193701885  0.9867789090909085   0   0   0
  0.8888715424182081  0.5555502118363194  0.8950989090909118   0   0   0
  0.0000000849663877  0.6666600043024502  0.8492909090909109   0   0   0
  0.0000000849663877  0.6666600043024502  0.9409709090909075   0   0   0
  0.1111102322921269  0.7777697967685810  0.9867789090909085   0   0   0
  0.2222203796178661  0.8888795892347048  0.8950989090909118   0   0   0
  0.3333301720839970  0.6666600043024502  0.8492909090909109   0   0   0
  0.3333301720839970  0.6666600043024502  0.9409709090909075   0   0   0
  0.4444403194097362  0.7777697967685810  0.9867789090909085   0   0   0
  0.5555504667354754  0.8888795892347048  0.8950989090909118   0   0   0
  0.6666602592016062  0.6666600043024502  0.8492909090909109   0   0   0
  0.6666602592016062  0.6666600043024502  0.9409709090909075   0   0   0
  0.7777617499520773  0.7777697967685810  0.9867789090909085   0   0   0
  0.8888783897092694  0.8888795892347048  0.8950989090909118   0   0   0
  0.0001033066295761  0.0000812178683844  0.0326509090909113   0   0   0
  0.0001003627942211  0.0000524792380361  0.1260721818181807   0   0   0
  0.1174084930584556  0.1098640353156881  0.1732667272727255   0   0   0
  0.2221425753989621  0.2214011587200844  0.0781767272727265   0   0   0
  0.3335728260846125  0.9993446367764349  0.0326730909090927   0   0   0
  0.3320568633335839  0.9988598285774657  0.1245610909090900   0   0   0
  0.4406036347884950  0.1150844699942724  0.1680063636363656   0   0   0
  0.5566683219867841  0.2221283710185347  0.0781749090909116   0   0   0
  0.6672157644312335  0.9996495161592946  0.0326787272727245   0   0   0
  0.6670954645245857  0.0017155712814017  0.1245334545454568   0   0   0
  0.7730534226722909  0.1171199147265369  0.1732465454545462   0   0   0
  0.8898267919999796  0.2211125229109072  0.0786832727272753   0   0   0
  0.9996750385620601  0.3334043477384370  0.0326781818181843   0   0   0
  0.0017732934452113  0.3313676535005001  0.1245410909090907   0   0   0
  0.1150916196656979  0.4445253857555755  0.1680107272727298   0   0   0
  0.2214275232896696  0.5566547748463364  0.0781759999999991   0   0   0
  0.3334386566650522  0.3334180923007821  0.0325020000000009   0   0   0
  0.3334153658794108  0.3333781081194189  0.1229074545454552   0   0   0
  0.4445694058402410  0.4405219695970857  0.1680100000000024   0   0   0
  0.5553902351267013  0.5554977325982833  0.0786865454545449   0   0   0
  0.6673837679652550  0.3335492903958581  0.0326741818181802   0   0   0
  0.6693113128851209  0.3320336400212511  0.1245603636363626   0   0   0
  0.7824115203982700  0.4464846106421234  0.1703856363636334   0   0   0
  0.8894196930574836  0.5553390453785170  0.0786841818181827   0   0   0
  0.9993653485823799  0.6673559789592147  0.0326736363636329   0   0   0
  0.9988922807386658  0.6692889642267517  0.1245600000000024   0   0   0
  0.1098140925741617  0.7730754039759873  0.1732612727272738   0   0   0
  0.2211390724073254  0.8892719340142889  0.0786836363636354   0   0   0
  0.3334278934232344  0.6671960422337833  0.0326785454545444   0   0   0
  0.3314023497738745  0.6670573471046950  0.1245390909090887   0   0   0
  0.4465867377383503  0.7712673692752006  0.1703745454545427   0   0   0
  0.5554959632982630  0.8893781419960192  0.0786832727272753   0   0   0
  0.6667765057118658  0.6667499687105050  0.0328989090909104   0   0   0
  0.6667667345775499  0.6667262281028243  0.1244854545454572   0   0   0
  0.7712872464113545  0.7823392389944246  0.1703783636363667   0   0   0
  0.8892873079320154  0.8898017244172820  0.0786827272727280   0   0   0
C
0.0		//starting magnetism
227		//number of atoms
  0.0000000000000000  0.0000000000000000  0.9982709090909125   0   0   0
  0.0000000000000000  0.0000000000000000  0.9065909090909088   0   0   0
  0.1111101473257392  0.1111097924661308  0.9523989090909097   0   0   0
  0.2222202946514784  0.2222195849322617  0.8607189090909060   0   0   0
  0.3333300871176093  0.0000000000000000  0.9982709090909125   0   0   0
  0.3333300871176093  0.0000000000000000  0.9065909090909088   0   0   0
  0.4444402344433485  0.1111097924661308  0.9523989090909097   0   0   0
  0.5555503817690877  0.2222195849322617  0.8607189090909060   0   0   0
  0.6666601742352185  0.0000000000000000  0.9982709090909125   0   0   0
  0.6666601742352185  0.0000000000000000  0.9065909090909088   0   0   0
  0.7777703215609577  0.1111097924661308  0.9523989090909097   0   0   0
  0.8888804688866969  0.2222195849322617  0.8607189090909060   0   0   0
  0.0000003548596084  0.3333293773983925  0.9982709090909125   0   0   0
  0.0000003548596084  0.3333293773983925  0.9065909090909088   0   0   0
  0.1111098774325185  0.4444404193701885  0.9523989090909097   0   0   0
  0.2222200247582578  0.5555502118363194  0.8607189090909060   0   0   0
  0.3333304419772176  0.3333293773983925  0.9982709090909125   0   0   0
  0.3333304419772176  0.3333293773983925  0.9065909090909088   0   0   0
  0.4444399645501278  0.4444404193701885  0.9523989090909097   0   0   0
  0.5555501118758670  0.5555502118363194  0.8607189090909060   0   0   0
  0.6666605290948269  0.3333293773983925  0.9982709090909125   0   0   0
  0.6666605290948269  0.3333293773983925  0.9065909090909088   0   0   0
  0.7777700516677371  0.4444404193701885  0.9523989090909097   0   0   0
  0.8888715424182081  0.5555502118363194  0.8607189090909060   0   0   0
  0.0000000849663877  0.6666600043024502  0.9982709090909125   0   0   0
  0.0000000849663877  0.6666600043024502  0.9065909090909088   0   0   0
  0.1111102322921269  0.7777697967685810  0.9523989090909097   0   0   0
  0.2222203796178661  0.8888795892347048  0.8607189090909060   0   0   0
  0.3333301720839970  0.6666600043024502  0.9982709090909125   0   0   0
  0.3333301720839970  0.6666600043024502  0.9065909090909088   0   0   0
  0.4444403194097362  0.7777697967685810  0.9523989090909097   0   0   0
  0.5555504667354754  0.8888795892347048  0.8607189090909060   0   0   0
  0.6666602592016062  0.6666600043024502  0.9982709090909125   0   0   0
  0.6666602592016062  0.6666600043024502  0.9065909090909088   0   0   0
  0.7777617499520773  0.7777697967685810  0.9523989090909097   0   0   0
  0.8888783897092694  0.8888795892347048  0.8607189090909060   0   0   0
  0.0000805506323545  0.0000574772607038  0.0910269090909068   0   0   0
  0.1128287499078908  0.1112672301802249  0.1375952727272747   0   0   0
  0.2222704648030387  0.2218422342206949  0.0437107272727246   0   0   0
  0.3532478547006050  0.9905631109456436  0.1822581818181845   0   0   0
  0.3324235232746631  0.9998231974470713  0.0901556363636331   0   0   0
  0.4424252566139160  0.1128241142418602  0.1344612727272718   0   0   0
  0.5561852555987201  0.2222483235626100  0.0437098181818172   0   0   0
  0.6505454295907782  0.0068960217786227  0.1823185454545424   0   0   0
  0.6673078305078235  0.0008796519898837  0.0901325454545443   0   0   0
  0.7761657638600852  0.1127628884641609  0.1375847272727242   0   0   0
  0.8894383281850082  0.2216535588649080  0.0441212727272742   0   0   0
  0.0069557281574362  0.3426831768248775  0.1823269090909108   0   0   0
  0.0008887458921265  0.3320049013909028  0.0901376363636359   0   0   0
  0.1128783302927729  0.4449439701541706  0.1344640000000012   0   0   0
  0.2218622463034592  0.5561662181303646  0.0437103636363645   0   0   0
  0.3333887714007844  0.3333793576250912  0.1805165454545445   0   0   0
  0.3334049574972013  0.3333881041647615  0.0890270909090916   0   0   0
  0.4449668960841535  0.4423737369962382  0.1344619999999992   0   0   0
  0.5554558041861100  0.5555527108476497  0.0441507272727293   0   0   0
  0.6565125588601859  0.3530453273249918  0.1822645454545437   0   0   0
  0.6679701534779525  0.3323959966648076  0.0901532727272709   0   0   0
  0.7802939606525499  0.4440693161869547  0.1359485454545464   0   0   0
  0.8893019221503025  0.5554252612695763  0.0441509090909094   0   0   0
  0.9905761407907434  0.6564153073350738  0.1822625454545488   0   0   0
  0.9998611249421003  0.6679507436569168  0.0901532727272709   0   0   0
  0.1112936047458533  0.7761391918725664  0.1375921818181851   0   0   0
  0.2216761849135338  0.8891932151572348  0.0441207272727269   0   0   0
  0.3427110607933486  0.6505601237774314  0.1823109090909085   0   0   0
  0.3320375609700363  0.6672910046645057  0.0901363636363612   0   0   0
  0.4441083707360960  0.7758280649613667  0.1359432727272747   0   0   0
  0.5555634241092449  0.8892756825312844  0.0441503636363620   0   0   0
  0.6667684089151464  0.6667012379894715  0.1815149090909074   0   0   0
  0.6667685638538501  0.6667312261254921  0.0901638181818214   0   0   0
  0.7758843976748793  0.7802563130467917  0.1359472727272717   0   0   0
  0.8892070946661903  0.8894081301320398  0.0441209090909069   0   0   0
  0.1285201570341741  0.0516683088544809  0.4786169090909098   0   0   0
  0.2055891468077675  0.2823670392460187  0.4786445454545429   0   0   0
  0.0260109969643523  0.4104663602723804  0.4786300000000026   0   0   0
  0.2567186488263573  0.1027918332379514  0.4786229090909089   0   0   0
  0.2824081529804943  0.5131307439322583  0.4786410909090932   0   0   0
  0.1028464866158458  0.6413312749176896  0.4786245454545437   0   0   0
  0.3336214193600213  0.3335892745772213  0.4786720000000031   0   0   0
  0.3593197025409793  0.7439344327998612  0.4786234545454562   0   0   0
  0.1797472604394557  0.8721262172456150  0.4786205454545467   0   0   0
  0.0516945634675636  0.8208777422954014  0.4786240000000035   0   0   0
  0.4105412381490083  0.5643179931047726  0.4786287272727279   0   0   0
  0.4363022040312856  0.9746481572594021  0.4786301818181826   0   0   0
  0.4875163200746613  0.7950617057003342  0.4786421818181807   0   0   0
  0.6670001947154631  0.6669886242929834  0.4786690909090936   0   0   0
  0.5901825929871052  0.4362524087314270  0.4786318181818174   0   0   0
  0.7182537301636387  0.4874921371419703  0.4786438181818156   0   0   0
  0.7440021035277979  0.8977760695869108  0.4786245454545437   0   0   0
  0.7951090494700779  0.7181983645675132  0.4786405454545459   0   0   0
  0.9746784202866721  0.5900927960128115  0.4786278181818204   0   0   0
  0.8978280465236637  0.3592966041792138  0.4786245454545437   0   0   0
  0.8721738334075937  0.9489033424873838  0.4786221818181815   0   0   0
  0.6413409435925459  0.2566584601383539  0.4786254545454511   0   0   0
  0.8209128958878438  0.1284416855792472  0.4786201818181794   0   0   0
  0.9489655803646855  0.1797226476768188  0.4786185454545446   0   0   0
  0.5131248937467205  0.2055224406982035  0.4786441818181828   0   0   0
  0.5643711695669680  0.0259647277694910  0.4786310909090901   0   0   0
  0.0501429048386299  0.1299985696408825  0.5462899999999991   0   0   0
  0.2808112697434382  0.2072155208775897  0.5462763636363661   0   0   0
  0.1012382828574374  0.2582653244266879  0.5462714545454546   0   0   0
  0.4090329198736598  0.0275928336541682  0.5462769090909063   0   0   0
  0.2039492980688280  0.5149312815990470  0.5462789090909084   0   0   0
  0.0245105305826172  0.5657624216563377  0.5462792727272756   0   0   0
  0.3319461671274979  0.3353123428926210  0.5462812727272706   0   0   0
  0.1270523452335510  0.8225958125881334  0.5462838181818199   0   0   0
  0.2551854478951370  0.6431480561581537  0.5462696363636397   0   0   0
  0.1782587243378302  0.9507401158185331  0.5462874545454568   0   0   0
  0.3578297644939994  0.8995578646686866  0.5462707272727272   0   0   0
  0.4348939661618729  0.5917146543691487  0.5462787272727283   0   0   0
  0.4861292188431179  0.7197752407198266  0.5462787272727283   0   0   0
  0.5115330285244255  0.2837889766955684  0.5462794545454557   0   0   0
  0.5627593747292678  0.4119582700393138  0.5462792727272756   0   0   0
  0.6397576849652822  0.1040325923657264  0.5462738181818168   0   0   0
  0.7423799103039386  0.3605298662729837  0.5462721818181819   0   0   0
  0.8194006241765592  0.0527866164268431  0.5462887272727244   0   0   0
  0.8705506330821606  0.1809808998839344  0.5462905454545464   0   0   0
  0.6657478651652156  0.6681731556657198  0.5462798181818158   0   0   0
  0.7936703561495264  0.4886791675260440  0.5462761818181789   0   0   0
  0.5884734716539626  0.9760688452032866  0.5462796363636357   0   0   0
  0.7168516798462932  0.7963624411001433  0.5462785454545482   0   0   0
  0.8963880187310593  0.7453751128344237  0.5462710909090944   0   0   0
  0.9731196219823559  0.4378205383440701  0.5462774545454536   0   0   0
  0.9475257000137489  0.8735918873935304  0.5462843636363601   0   0   0
  0.1285132972480625  0.0516495662694680  0.3503847272727256   0   0   0
  0.2055687098930719  0.2823732867743516  0.3503810909090888   0   0   0
  0.0259914746878067  0.4104751068120578  0.3503614545454568   0   0   0
  0.2566958803340853  0.1028005797776288  0.3504000000000005   0   0   0
  0.2824154700856880  0.5131507360229364  0.3503769090909117   0   0   0
  0.1028586343099462  0.6413437699743625  0.3503960000000035   0   0   0
  0.3336309905734325  0.3335917735885516  0.3503752727272698   0   0   0
  0.3593098739294049  0.7439519258792018  0.3503992727272731   0   0   0
  0.1797286977832613  0.8721287162569524  0.3503880000000024   0   0   0
  0.0516728320649946  0.8208952353747421  0.3503880000000024   0   0   0
  0.4105499272114201  0.5643417337124532  0.3503563636363651   0   0   0
  0.4362742700825848  0.9746693988557524  0.3503601818181821   0   0   0
  0.4875013709888592  0.7950829472966845  0.3503818181818161   0   0   0
  0.6670099333626354  0.6669886242929834  0.3503763636363644   0   0   0
  0.5901789794167129  0.4362336661464141  0.3503623636363642   0   0   0
  0.7182578585303645  0.4874708955456271  0.3503854545454530   0   0   0
  0.7440115522896562  0.8977723210699082  0.3503990909090930   0   0   0
  0.7951337696902030  0.7182008635788506  0.3503776363636391   0   0   0
  0.9747067215900387  0.5900902970014741  0.3503545454545431   0   0   0
  0.8978256374767355  0.3592841091225409  0.3504027272727299   0   0   0
  0.8721641272475651  0.9489270830950716  0.3503876363636351   0   0   0
  0.6413501474512913  0.2566422165646784  0.3503989090909059   0   0   0
  0.8209240064922412  0.1284454340962498  0.3503818181818161   0   0   0
  0.9489829834796168  0.1797051545974782  0.3503810909090888   0   0   0
  0.5131466701314977  0.2054962010791854  0.3503772727272718   0   0   0
  0.5643842893764770  0.0259384881504729  0.3503554545454577   0   0   0
  0.0499218422959444  0.1301809974683295  0.4142992727272699   0   0   0
  0.2807066111487302  0.2071867822472413  0.4142874545454518   0   0   0
  0.1011184952481159  0.2582928135513711  0.4142938181818181   0   0   0
  0.4086720176546947  0.0276740515225526  0.4142960000000002   0   0   0
  0.2037704838117662  0.5147738438849458  0.4142958181818202   0   0   0
  0.0242077278781778  0.5660585544995200  0.4143003636363645   0   0   0
  0.3319425585551272  0.3351723982578676  0.4142890909090937   0   0   0
  0.1268040534633599  0.8224821075723980  0.4142874545454518   0   0   0
  0.2548084670372504  0.6430493452104216  0.4142947272727255   0   0   0
  0.1780418251480285  0.9505939236554397  0.4142949090909127   0   0   0
  0.3574670180046695  0.8994566547096241  0.4142960000000002   0   0   0
  0.4345566696039782  0.5917746306411900  0.4143007272727246   0   0   0
  0.4858383089336229  0.7197727417084963  0.4142972727272749   0   0   0
  0.5114439662594563  0.2840038916703662  0.4142969090909077   0   0   0
  0.5626378503070697  0.4121731850141117  0.4142998181818172   0   0   0
  0.6396240478351345  0.1044686698436621  0.4142994545454570   0   0   0
  0.7422244767969275  0.3609359556148988  0.4142960000000002   0   0   0
  0.8191883956389461  0.0532651770974724  0.4142949090909127   0   0   0
  0.8703164532289804  0.1813994842825295  0.4142985454545425   0   0   0
  0.6653576220541666  0.6685792450076420  0.4142900000000012   0   0   0
  0.7933959272197839  0.4891089974756468  0.4142885454545464   0   0   0
  0.5882612281222777  0.9763699760691438  0.4143005454545445   0   0   0
  0.7164484843594963  0.7967922710497461  0.4142952727272728   0   0   0
  0.8960544681911600  0.7457587110743304  0.4142954545454529   0   0   0
  0.9729175719179040  0.4379130017634623  0.4142947272727255   0   0   0
  0.9473274509455365  0.8737568221416296  0.4142876363636390   0   0   0
  0.0499377959843059  0.1301447618039759  0.2862999999999971   0   0   0
  0.2806937162502408  0.2071692891678936  0.2861145454545451   0   0   0
  0.1011398343059042  0.2583215521817195  0.2861632727272720   0   0   0
  0.4087264761097060  0.0277252812549165  0.2860932727272711   0   0   0
  0.2037476628402572  0.5147026220619040  0.2861121818181829   0   0   0
  0.0242389205376625  0.5660048257558259  0.2860929090909110   0   0   0
  0.3319713046825115  0.3352036358995534  0.2860772727272760   0   0   0
  0.1267252096557456  0.8224233808060291  0.2863092727272729   0   0   0
  0.2548162414615120  0.6430705868067719  0.2861605454545426   0   0   0
  0.1780903634451860  0.9505639355194191  0.2862960000000001   0   0   0
  0.3574890392925525  0.8994429101472790  0.2861632727272720   0   0   0
  0.4345230678975724  0.5918158643282183  0.2860823636363605   0   0   0
  0.4858796475791252  0.7198502110598781  0.2861174545454546   0   0   0
  0.5113917369225618  0.2840001431533636  0.2861127272727302   0   0   0
  0.5626038237687325  0.4122369098031484  0.2860865454545447   0   0   0
  0.6396371876367368  0.1044986579796827  0.2861558181818182   0   0   0
  0.7421296543108369  0.3609784388075923  0.2861639999999994   0   0   0
  0.8191113111353090  0.0532851691881504  0.2862932727272707   0   0   0
  0.8703353582497328  0.1814807021509139  0.2862914545454558   0   0   0
  0.6653203742902249  0.6685779955019768  0.2860989090909101   0   0   0
  0.7933599039713926  0.4891702232533532  0.2861289090909125   0   0   0
  0.5882899342654824  0.9762887582007593  0.2860925454545438   0   0   0
  0.7165005587576943  0.7967660314307281  0.2861247272727283   0   0   0
  0.8960115576675278  0.7456562516095957  0.2861685454545437   0   0   0
  0.9728176989299087  0.4378855126387791  0.2860996363636374   0   0   0
  0.9472664300867635  0.8737793132436451  0.2862972727272748   0   0   0
  0.1220580860748441  0.0569162326577484  0.2234316363636353   0   0   0
  0.2044326518431987  0.2781724487204045  0.2180389090909074   0   0   0
  0.0212492508182649  0.4003091287017284  0.2107592727272731   0   0   0
  0.2501677455110993  0.1135000968079538  0.2212883636363614   0   0   0
  0.2781551030827316  0.5175877306480317  0.2180249090909072   0   0   0
  0.1135108925369153  0.6365581632680559  0.2212867272727266   0   0   0
  0.3333542550562285  0.3334180923007821  0.2105627272727304   0   0   0
  0.3622843571569092  0.7512215498523958  0.2214343636363623   0   0   0
  0.1791397757740611  0.8777127570847583  0.2237481818181806   0   0   0
  0.0569695140784177  0.8212675880636411  0.2234276363636383   0   0   0
  0.4003274864389965  0.5785798507929769  0.2107579999999984   0   0   0
  0.4231581066319592  0.9782279909966292  0.2107563636363636   0   0   0
  0.4830441118808508  0.7962649796580834  0.2186563636363630   0   0   0
  0.6667674942769963  0.6666987389781411  0.2115661818181849   0   0   0
  0.5988187363344863  0.4231525913139436  0.2107765454545429   0   0   0
  0.7207987233070909  0.4830513939998795  0.2186945454545466   0   0   0
  0.7512548166912865  0.8867354375093726  0.2214467272727276   0   0   0
  0.7963161069309876  0.7208873007638559  0.2186807272727265   0   0   0
  0.9782219109020573  0.5988668248096047  0.2107574545454511   0   0   0
  0.8866839778679676  0.3622654296450634  0.2214645454545447   0   0   0
  0.8775828209904049  0.9434892344303520  0.2237700000000018   0   0   0
  0.6364364464219747  0.2501822722639915  0.2212972727272700   0   0   0
  0.8212419632014161  0.1220767037092898  0.2234530909090893   0   0   0
  0.9433247595003351  0.1792378394778495  0.2237896363636338   0   0   0
  0.5175531443311598  0.2044503648355374  0.2180234545454525   0   0   0
  0.5786376004459157  0.0212590894258966  0.2107494545454571   0   0   0
H
0.0
9
0.0000000000000000  0.0000000000000000  0.8227656363636342   0   0   0
0.3333300871176093  0.0000000000000000  0.8227656363636342   0   0   0
0.6666601742352185  0.0000000000000000  0.8227656363636342   0   0   0
0.0000003548596084  0.3333293773983925  0.8227656363636342   0   0   0
0.3333304419772176  0.3333293773983925  0.8227656363636342   0   0   0
0.6666605290948269  0.3333293773983925  0.8227656363636342   0   0   0
0.0000000849663877  0.6666600043024502  0.8227656363636342   0   0   0
0.3333301720839970  0.6666600043024502  0.8227656363636342   0   0   0
0.6666602592016062  0.6666600043024502  0.8227656363636342   0   0   0
	
 
