ATOMIC_SPECIES
Ga 69.72   Ga.pz-bhs.UPF
As 74.9216 As.pz-bhs.UPF
LATTICE_CONSTANT
10.5           
LATTICE_VECTORS
2 0 0
0 2 0
0 0 2
ATOMIC_POSITIONS
Cartesian
Ga
0.0
32
0	0	0		0	0	0
0	0.5	0.5		0	0	0
0.5	0	0.5		0	0	0
0.5	0.5	0		0	0	0
1	0	0		0	0	0
1	0.5	0.5		0	0	0
1.5	0	0.5		0	0	0
1.5	0.5	0		0	0	0
0	1	0		0	0	0
0	1.5	0.5		0	0	0	
0.5	1	0.5		0	0	0
0.5	1.5	0		0	0	0
0	0	1		0	0	0
0	0.5	1.5		0	0	0
0.5	0	1.5		0	0	0
0.5	0.5	1		0	0	0
1	1	0		0	0	0
1	1.5	0.5		0	0	0
1.5	1	0.5		0	0	0
1.5	1.5	0		0	0	0
1	0	1		0	0	0
1	0.5	1.5		0	0	0
1.5	0	1.5		0	0	0
1.5	0.5	1		0	0	0
0	1	1		0	0	0
0	1.5	1.5		0	0	0
0.5	1	1.5		0	0	0
0.5	1.5	1		0	0	0
1	1	1		0	0	0
1	1.5	1.5		0	0	0
1.5	1	1.5		0	0	0
1.5	1.5	1		0	0	0
As
0.0
32
0.25	0.25	0.25		0	0	0
0.25	0.75	0.75		0	0	0
0.75	0.25	0.75		0	0	0
0.75	0.75	0.25		0	0	0
1.25	0.25	0.25		0	0	0
1.25	0.75	0.75		0	0	0
1.75	0.25	0.75		0	0	0
1.75	0.75	0.25		0	0	0
0.25	1.25	0.25		0	0	0
0.25	1.75	0.75		0	0	0
0.75	1.25	0.75		0	0	0
0.75	1.75	0.25		0	0	0
0.25	0.25	1.25		0	0	0
0.25	0.75	1.75		0	0	0
0.75	0.25	1.75		0	0	0
0.75	0.75	1.25		0	0	0
1.25	1.25	0.25		0	0	0
1.25	1.75	0.75		0	0	0
1.75	1.25	0.75		0	0	0
1.75	1.75	0.25		0	0	0
0.25	1.25	1.25		0	0	0
0.25	1.75	1.75		0	0	0
0.75	1.25	1.75		0	0	0
0.75	1.75	1.25		0	0	0
1.25	0.25	1.25		0	0	0
1.25	0.75	1.75		0	0	0
1.75	0.25	1.75		0	0	0
1.75	0.75	1.25		0	0	0
1.25	1.25	1.25		0	0	0
1.25	1.75	1.75		0	0	0
1.75	1.25	1.75		0	0	0
1.75	1.75	1.25		0	0	0
