ATOMIC_SPECIES
Ga 69.72   Ga.pz-bhs.UPF
P  30.973  P.pz-bhs.UPF

LATTICE_CONSTANT
10.18   // add lattice constant

LATTICE_VECTORS
0.0 0.5 0.5
0.5 0.0 0.5
0.5 0.5 0.0

ATOMIC_POSITIONS
Direct
Ga
0
1
0.0    0.0    0.0  0 0 0

P
0
1
0.25   0.25   0.25 0 0 0 
