ATOMIC_SPECIES
Ga 69.72   Ga.pz-bhs.UPF
Sb 121.75 Sb.pz-bhs.UPF

LATTICE_CONSTANT
11.40   // add lattice constant 6.76

LATTICE_VECTORS
0.0 0.5 0.5
0.5 0.0 0.5
0.5 0.5 0.0

ATOMIC_POSITIONS
Direct
Ga
0
1
0.0    0.0    0.0  0 0 0

Sb
0
1
0.25   0.25   0.25 0 0 0 
