ATOMIC_SPECIES
C 12.011 C.pz-vbc.UPF

LATTICE_CONSTANT
1.8897268777  // add lattice constant(a.u.)

LATTICE_VECTORS
8.8653991585000007    0.0000000000000000    0.0000000000000000
4.4326995792000004    7.6776608854999999    0.0000000000000000
0.0000000000000000    0.0000000000000000   20.0000000000000000
			   
ATOMIC_POSITIONS
Direct	//Cartesian or Direct coordinate.

C
0.231	//starting magnetism
26		//number of atoms
0.2820512820464742  0.2051282051401699  0.0000000000000000   0   0   0
0.1025641025580839  0.2564102564252337  0.0000000000000000   0   0   0
0.4102564102558546  0.0256410256424360  0.0000000000000000   0   0   0
0.2051282051161252  0.5128205128505172  0.0000000000000000   0   0   0
0.0256410256277277  0.5641025641355810  0.0000000000000000   0   0   0
0.3333333333255055  0.3333333333527833  0.0000000000000000   0   0   0
0.1282051281857690  0.8205128205608645  0.0000000000000000   0   0   0
0.2564102563951565  0.6410256410631305  0.0000000000000000   0   0   0
0.1794871794648003  0.9487179487734778  0.0000000000000000   0   0   0
0.3589743589531764  0.8974358974884069  0.0000000000000000   0   0   0
0.4358974358835184  0.5897435897780596  0.0000000000000000   0   0   0
0.4871794871625568  0.7179487179906801  0.0000000000000000   0   0   0
0.5128205128138390  0.2820512820677195  0.0000000000000000   0   0   0
0.5641025640928845  0.4102564102803399  0.0000000000000000   0   0   0
0.6410256410232051  0.1025641025699997  0.0000000000000000   0   0   0
0.7435897435812748  0.3589743589952619  0.0000000000000000   0   0   0
0.8205128205116097  0.0512820512849075  0.0000000000000000   0   0   0
0.8717948717906552  0.1794871794975279  0.0000000000000000   0   0   0
0.6666666666509258  0.6666666667056091  0.0000000000000000   0   0   0
0.7948717948603061  0.4871794872078752  0.0000000000000000   0   0   0
0.5897435897205696  0.9743589744159493  0.0000000000000000   0   0   0
0.7179487179299571  0.7948717949182225  0.0000000000000000   0   0   0
0.8974358974183332  0.7435897436331516  0.0000000000000000   0   0   0
0.9743589743486680  0.4358974359228043  0.0000000000000000   0   0   0
0.9487179486973645  0.8717948718457649  0.0000000000000000   0   0   0
0.0512820512790171  0.1282051282126417  0.0000000000000000   0   0   0

