ATOMIC_SPECIES
C 12.011 C.pz-vbc.UPF

LATTICE_CONSTANT
1.8897268777  // add lattice constant(a.u.)

LATTICE_VECTORS
2.1192732240032179  -1.2235629673323860 0.0000000000000000
2.1192732240032179  1.2235629673323860  0.0000000000000000
0           0           10
			   
ATOMIC_POSITIONS
Direct	//Cartesian or Direct coordinate.

C
0.231	//starting magnetism
2		//number of atoms
0   0   0 0 0 0
0.66666666666666667 0.66666666666666667 0  0 0 0
