ATOMIC_SPECIES
C 12.011 C.pz-vbc.UPF

LATTICE_CONSTANT
4.642714714    // add lattice constant(a.u.)

LATTICE_VECTORS
1.0 0.0 0.0 // first vector
0.5 0.866025 0.0 // second vector
0.0 0.0 5 // third vector

ATOMIC_POSITIONS
Direct	//Cartesian or Direct coordinate.

C 
0.300	//starting magnetism
2		//number of atoms
0.0      	0.0     	0.0   	1 	1 	1  // crystal coor.
0.6666666	0.6666666	0.0	1	1	1	
