ATOMIC_SPECIES
C 12.011 C.pz-vbc.UPF

NUMERICAL_ORBITAL

LATTICE_CONSTANT
1.8897268777  // add lattice constant(a.u.)

LATTICE_VECTORS
8.8653991585000007    0.0000000000000000    0.0000000000000000
4.4326995792000004    7.6776608854999999    0.0000000000000000
0.0000000000000000    0.0000000000000000   20.0000000000000000
			   
ATOMIC_POSITIONS
Direct	//Cartesian or Direct coordinate.

C
0.231	//starting magnetism
26		//number of atoms
0.1282051282039163  0.0512820512850567  0.0000000000000000   0   0   0
0.2051282051215324  0.2820512820678118  0.0000000000000000   0   0   0
0.0256410256313231  0.4102564102804607  0.0000000000000000   0   0   0
0.2564102564078254  0.1025641025700921  0.0000000000000000   0   0   0
0.2820512820391556  0.5128205128505670  0.0000000000000000   0   0   0
0.1025641025489463  0.6410256410632158  0.0000000000000000   0   0   0
0.3333333333254487  0.3333333333528472  0.0000000000000000   0   0   0
0.3589743589567789  0.7435897436333292  0.0000000000000000   0   0   0
0.1794871794665696  0.8717948718459709  0.0000000000000000   0   0   0
0.0512820512626462  0.8205128205609284  0.0000000000000000   0   0   0
0.4102564102430719  0.5641025641356023  0.0000000000000000   0   0   0
0.4358974358743950  0.9743589744160843  0.0000000000000000   0   0   0
0.4871794871606880  0.7948717949183575  0.0000000000000000   0   0   0
0.6666666666508760  0.6666666667057228  0.0000000000000000   0   0   0
0.5897435897332386  0.4358974359229677  0.0000000000000000   0   0   0
0.7179487179371691  0.4871794872079960  0.0000000000000000   0   0   0
0.7435897435684993  0.8974358974884780  0.0000000000000000   0   0   0
0.7948717948547923  0.7179487179907511  0.0000000000000000   0   0   0
0.9743589743449803  0.5897435897781165  0.0000000000000000   0   0   0
0.8974358974273429  0.3589743589953613  0.0000000000000000   0   0   0
0.8717948717723942  0.9487179487735204  0.0000000000000000   0   0   0
0.6410256410194890  0.2564102564252835  0.0000000000000000   0   0   0
0.8205128205096983  0.1282051282126275  0.0000000000000000   0   0   0
0.9487179487136288  0.1794871794976558  0.0000000000000000   0   0   0
0.5128205128155585  0.2051282051402410  0.0000000000000000   0   0   0
0.5641025641018373  0.0256410256425355  0.0000000000000000   0   0   0
