ATOMIC_SPECIES
In      114.82	In.pz-n-bhs.UPF
As     74.9216	As.pz-bhs.UPF

LATTICE_CONSTANT
11.25

LATTICE_VECTORS
0         0.5         0.5
0.5           0         0.5
0.5         0.5           0

ATOMIC_POSITIONS
Direct
In
0
1
0           0           0           0           0           0

As
0
1
0.25        0.25        0.25           0           0           0
