ATOMIC_SPECIES
In 49 In.pz-n-bhs.UPF
As 33 As.pz-bhs.UPF

NUMERICAL_ORBITAL

LATTICE_CONSTANT
11.6  // add lattice constant(a.u.)

LATTICE_VECTORS
0.0 0.5 0.5
0.5 0.0 0.5
0.5 0.5 0.0

ATOMIC_POSITIONS
Direct  //Cartesian or Direct coordinate.

In
0.0     //starting magnetism
1       //number of atoms
0 0 0 0 0 0

As
0.0		//starting magnetism
1
0.25 0.25 0.25 0 0 0
