ATOMIC_SPECIES
In 114.82  In.pz-n-bhs.UPF
As 74.9216 As.pz-bhs.UPF
LATTICE_CONSTANT
11.3
LATTICE_VECTORS
1 0 0
0 1 0
0 0 1
ATOMIC_POSITIONS
Direct
In
0
4
0.000000000   0.000000000  	0.000000000 	0	0	0
0.500000000   0.500000000   0.000000000		0	0	0
0.500000000   0.000000000   0.500000000		0	0	0
0.000000000   0.500000000   0.500000000		0	0	0

As
0
4
0.250000000   0.250000000   0.250000000		0	0	0
0.750000000   0.750000000   0.250000000		0	0	0
0.750000000   0.250000000   0.750000000		0	0	0
0.250000000   0.750000000   0.750000000		0	0	0
