ATOMIC_SPECIES
In 114.82 In.pz-n-bhs.UPF
Sb 121.75 Sb.pz-bhs.UPF

LATTICE_CONSTANT
11.97  // add lattice constant(a.u.)

LATTICE_VECTORS
0.0 0.5 0.5 // first vector
0.5 0.0 0.5 // second vector
0.5 0.5 0.0 // third vector

ATOMIC_POSITIONS
Direct  //Cartesian or Direct coordinate.

In      //Element Label
0.000   //starting magnetism
1       //number of atoms
0.0    0.0    0.0   0 0 0  // crystal coor.

Sb     //Element Label
0.000   //starting magnetism
1       //number of atoms
0.25   0.25   0.25 0 0 0
