USE_XYZ

ATOMIC_SPECIES
Li 1 Li.pz-n-vbc.UPF #label; mass; pseudo_file

NUMERICAL_ORBITAL

LATTICE_CONSTANT
1.88973 #lattice scaling factor (Bohr)

LATTICE_VECTORS
22 0 0 #latvec1
0 22 0 #latvec2
0 0 22 #latvec3

ATOMIC_POSITIONS
Cartesian

Li
0
58
Li 11.7012 14.0486 6.6818
Li 10.5156 10.3614 10.7795
Li 9.89949 9.44623 7.73942
Li 10.9202 15.8995 9.22946
Li 15.4027 9.72331 9.48478
Li 8.77055 14.1433 8.3055
Li 14.5718 9.22341 6.52053
Li 9.96713 8.06391 12.6959
Li 9.30957 7.53165 9.78104
Li 6.53295 7.62138 9.16751
Li 7.55604 9.49489 11.1818
Li 11.1922 5.62341 8.68348
Li 8.2312 12.3987 12.0299
Li 12.7163 9.47607 8.58131
Li 7.51669 6.55341 12.0237
Li 8.59023 15.3876 11.2725
Li 11.2123 12.1051 8.38651
Li 13.2871 5.05389 10.9667
Li 7.15367 9.63593 7.0193
Li 12.7852 9.55028 12.7447
Li 13.2579 14.1908 9.6467
Li 10.5196 13.4623 10.6562
Li 8.90044 9.34445 16.2194
Li 14.782 7.70876 11.633
Li 10.2864 5.33258 11.7245
Li 11.6992 12.4354 13.0664
Li 7.14652 8.87253 13.926
Li 14.6386 8.46028 14.6186
Li 14.1379 6.9096 8.58905
Li 6.44984 14.2217 13.2248
Li 5 8.35818 11.7378
Li 9.18946 11.9824 6.23452
Li 6.3044 12.5916 7.22344
Li 10.6778 11.9202 15.9522
Li 8.75702 6.8526 6.98082
Li 5.42006 10.5807 9.51271
Li 14.27 13.5469 12.5646
Li 9.62684 10.5649 13.7458
Li 8.1655 11.4729 9.07257
Li 9.51734 14.0896 13.9872
Li 11.8257 7.67937 6.49111
Li 9.48434 9.16952 5
Li 8.19963 5 9.44617
Li 12.497 14.2858 15.0321
Li 15.4652 10.6871 12.515
Li 11.6339 8.92006 15.2672
Li 15.943 12.6937 10.1042
Li 11.7565 15.4212 12.2189
Li 6.33617 13.4629 10.1933
Li 12.1264 7.56149 10.6229
Li 13.5967 11.3617 14.8948
Li 14.0862 12.0343 7.69805
Li 11.9725 10.8049 5.88908
Li 9.37601 6.50212 14.729
Li 13.3947 11.5283 10.6355
Li 7.5115 11.8866 15.0058
Li 5.66287 11.2777 12.5235
Li 12.4134 6.60528 13.4872
