ATOMIC_SPECIES
Ni 28 Ni.LDA.UPF

LATTICE_CONSTANT
6.6

LATTICE_VECTORS
0.0 0.5 0.5
0.5 0.0 0.5
0.5 0.5 0.0

ATOMIC_POSITIONS
Direct  //Cartesian or Direct coordinate.

Ni
0.2     //starting magnetism
1       //number of atoms
0 0 0 0 0 0

