ATOMIC_SPECIES
Pb 82 Pb.LDA.UPF
LATTICE_CONSTANT
9.5  // add lattice constant(a.u.)

LATTICE_VECTORS
0.0 0.5 0.5
0.5 0.0 0.5
0.5 0.5 0.0

ATOMIC_POSITIONS
Direct  //Cartesian or Direct coordinate.

Pb
0.0     //starting magnetism
1       //number of atoms
0 0 0 0 0 0
