ATOMIC_SPECIES
Si 28.0855 Si.pz-vbc.UPF
H 1.0079 H.pz-vbc.UPF

NUMERICAL_ORBITAL

LATTICE_CONSTANT
10.2   // add lattice constant

LATTICE_VECTORS
6	0	0
0	6	0
0	0	6
ATOMIC_POSITIONS
Cartesian
Si
0.0	//starting magnetism
256
        1.58333        2.08333        2.08333              0              0              0
        1.58333        2.08333        3.08333              0              0              0
        1.33333        2.33333        2.33333              0              0              0
        1.58333        2.58333        2.58333              0              0              0
        1.33333        2.33333        3.33333              0              0              0
        1.58333        2.58333        3.58333              0              0              0
        1.58333        3.08333        2.08333              0              0              0
        1.33333        2.83333        2.83333              0              0              0
        1.58333        3.08333        3.08333              0              0              0
        1.58333        3.08333        4.08333              0              0              0
        1.33333        2.83333        3.83333              0              0              0
        1.33333        3.33333        2.33333              0              0              0
        1.58333        3.58333        2.58333              0              0              0
        1.33333        3.33333        3.33333              0              0              0
        1.58333        3.58333        3.58333              0              0              0
        1.58333        4.08333        3.08333              0              0              0
        1.33333        3.83333        2.83333              0              0              0
        2.08333        1.58333        2.08333              0              0              0
        2.08333        1.58333        3.08333              0              0              0
        2.08333        2.08333        1.58333              0              0              0
        2.08333        2.08333        2.58333              0              0              0
        1.83333        1.83333        2.33333              0              0              0
        2.08333        2.08333        3.58333              0              0              0
        1.83333        1.83333        3.33333              0              0              0
        2.08333        2.58333        2.08333              0              0              0
        1.83333        2.33333        1.83333              0              0              0
        1.83333        2.33333        2.83333              0              0              0
        2.08333        2.58333        3.08333              0              0              0
        2.08333        2.58333        4.08333              0              0              0
        1.83333        2.33333        3.83333              0              0              0
        2.08333        3.08333        1.58333              0              0              0
        1.83333        2.83333        2.33333              0              0              0
        2.08333        3.08333        2.58333              0              0              0
        1.83333        2.83333        3.33333              0              0              0
        2.08333        3.08333        3.58333              0              0              0
        2.08333        3.08333        4.58333              0              0              0
        1.83333        2.83333        4.33333              0              0              0
        2.08333        3.58333        2.08333              0              0              0
        1.83333        3.33333        1.83333              0              0              0
        1.83333        3.33333        2.83333              0              0              0
        2.08333        3.58333        3.08333              0              0              0
        2.08333        3.58333        4.08333              0              0              0
        1.83333        3.33333        3.83333              0              0              0
        2.08333        4.08333        2.58333              0              0              0
        1.83333        3.83333        2.33333              0              0              0
        2.08333        4.08333        3.58333              0              0              0
        1.83333        3.83333        3.33333              0              0              0
        1.83333        3.83333        4.33333              0              0              0
        2.08333        4.58333        3.08333              0              0              0
        1.83333        4.33333        2.83333              0              0              0
        1.83333        4.33333        3.83333              0              0              0
        2.33333        1.33333        2.33333              0              0              0
        2.58333        1.58333        2.58333              0              0              0
        2.33333        1.33333        3.33333              0              0              0
        2.58333        1.58333        3.58333              0              0              0
        2.58333        2.08333        2.08333              0              0              0
        2.33333        1.83333        1.83333              0              0              0
        2.33333        1.83333        2.83333              0              0              0
        2.58333        2.08333        3.08333              0              0              0
        2.58333        2.08333        4.08333              0              0              0
        2.33333        1.83333        3.83333              0              0              0
        2.33333        2.33333        1.33333              0              0              0
        2.58333        2.58333        1.58333              0              0              0
        2.58333        2.58333        2.58333              0              0              0
        2.33333        2.33333        2.33333              0              0              0
        2.58333        2.58333        3.58333              0              0              0
        2.33333        2.33333        3.33333              0              0              0
        2.33333        2.33333        4.33333              0              0              0
        2.58333        2.58333        4.58333              0              0              0
        2.33333        2.83333        1.83333              0              0              0
        2.58333        3.08333        2.08333              0              0              0
        2.58333        3.08333        3.08333              0              0              0
        2.33333        2.83333        2.83333              0              0              0
        2.33333        2.83333        3.83333              0              0              0
        2.58333        3.08333        4.08333              0              0              0
        2.33333        2.83333        4.83333              0              0              0
        2.33333        3.33333        1.33333              0              0              0
        2.58333        3.58333        1.58333              0              0              0
        2.58333        3.58333        2.58333              0              0              0
        2.33333        3.33333        2.33333              0              0              0
        2.58333        3.58333        3.58333              0              0              0
        2.33333        3.33333        3.33333              0              0              0
        2.33333        3.33333        4.33333              0              0              0
        2.58333        3.58333        4.58333              0              0              0
        2.58333        4.08333        2.08333              0              0              0
        2.33333        3.83333        1.83333              0              0              0
        2.33333        3.83333        2.83333              0              0              0
        2.58333        4.08333        3.08333              0              0              0
        2.58333        4.08333        4.08333              0              0              0
        2.33333        3.83333        3.83333              0              0              0
        2.33333        4.33333        2.33333              0              0              0
        2.58333        4.58333        2.58333              0              0              0
        2.33333        4.33333        3.33333              0              0              0
        2.58333        4.58333        3.58333              0              0              0
        2.33333        4.33333        4.33333              0              0              0
        2.33333        4.83333        2.83333              0              0              0
        3.08333        1.58333        2.08333              0              0              0
        2.83333        1.33333        2.83333              0              0              0
        3.08333        1.58333        3.08333              0              0              0
        3.08333        1.58333        4.08333              0              0              0
        2.83333        1.33333        3.83333              0              0              0
        3.08333        2.08333        1.58333              0              0              0
        2.83333        1.83333        2.33333              0              0              0
        3.08333        2.08333        2.58333              0              0              0
        2.83333        1.83333        3.33333              0              0              0
        3.08333        2.08333        3.58333              0              0              0
        3.08333        2.08333        4.58333              0              0              0
        2.83333        1.83333        4.33333              0              0              0
        2.83333        2.33333        1.83333              0              0              0
        3.08333        2.58333        2.08333              0              0              0
        3.08333        2.58333        3.08333              0              0              0
        2.83333        2.33333        2.83333              0              0              0
        2.83333        2.33333        3.83333              0              0              0
        3.08333        2.58333        4.08333              0              0              0
        2.83333        2.33333        4.83333              0              0              0
        2.83333        2.83333        1.33333              0              0              0
        3.08333        3.08333        1.58333              0              0              0
        3.08333        3.08333        2.58333              0              0              0
        2.83333        2.83333        2.33333              0              0              0
        3.08333        3.08333        3.58333              0              0              0
        2.83333        2.83333        3.33333              0              0              0
        2.83333        2.83333        4.33333              0              0              0
        3.08333        3.08333        4.58333              0              0              0
        2.83333        3.33333        1.83333              0              0              0
        3.08333        3.58333        2.08333              0              0              0
        3.08333        3.58333        3.08333              0              0              0
        2.83333        3.33333        2.83333              0              0              0
        2.83333        3.33333        3.83333              0              0              0
        3.08333        3.58333        4.08333              0              0              0
        2.83333        3.33333        4.83333              0              0              0
        3.08333        4.08333        1.58333              0              0              0
        2.83333        3.83333        1.33333              0              0              0
        2.83333        3.83333        2.33333              0              0              0
        3.08333        4.08333        2.58333              0              0              0
        2.83333        3.83333        3.33333              0              0              0
        3.08333        4.08333        3.58333              0              0              0
        3.08333        4.08333        4.58333              0              0              0
        2.83333        3.83333        4.33333              0              0              0
        3.08333        4.58333        2.08333              0              0              0
        2.83333        4.33333        1.83333              0              0              0
        2.83333        4.33333        2.83333              0              0              0
        3.08333        4.58333        3.08333              0              0              0
        3.08333        4.58333        4.08333              0              0              0
        2.83333        4.33333        3.83333              0              0              0
        2.83333        4.83333        2.33333              0              0              0
        2.83333        4.83333        3.33333              0              0              0
        3.33333        1.33333        2.33333              0              0              0
        3.58333        1.58333        2.58333              0              0              0
        3.33333        1.33333        3.33333              0              0              0
        3.58333        1.58333        3.58333              0              0              0
        3.58333        2.08333        2.08333              0              0              0
        3.33333        1.83333        1.83333              0              0              0
        3.33333        1.83333        2.83333              0              0              0
        3.58333        2.08333        3.08333              0              0              0
        3.58333        2.08333        4.08333              0              0              0
        3.33333        1.83333        3.83333              0              0              0
        3.33333        2.33333        1.33333              0              0              0
        3.58333        2.58333        1.58333              0              0              0
        3.58333        2.58333        2.58333              0              0              0
        3.33333        2.33333        2.33333              0              0              0
        3.58333        2.58333        3.58333              0              0              0
        3.33333        2.33333        3.33333              0              0              0
        3.33333        2.33333        4.33333              0              0              0
        3.58333        2.58333        4.58333              0              0              0
        3.33333        2.83333        1.83333              0              0              0
        3.58333        3.08333        2.08333              0              0              0
        3.58333        3.08333        3.08333              0              0              0
        3.33333        2.83333        2.83333              0              0              0
        3.33333        2.83333        3.83333              0              0              0
        3.58333        3.08333        4.08333              0              0              0
        3.33333        2.83333        4.83333              0              0              0
        3.33333        3.33333        1.33333              0              0              0
        3.58333        3.58333        1.58333              0              0              0
        3.58333        3.58333        2.58333              0              0              0
        3.33333        3.33333        2.33333              0              0              0
        3.58333        3.58333        3.58333              0              0              0
        3.33333        3.33333        3.33333              0              0              0
        3.33333        3.33333        4.33333              0              0              0
        3.58333        3.58333        4.58333              0              0              0
        3.58333        4.08333        2.08333              0              0              0
        3.33333        3.83333        1.83333              0              0              0
        3.33333        3.83333        2.83333              0              0              0
        3.58333        4.08333        3.08333              0              0              0
        3.58333        4.08333        4.08333              0              0              0
        3.33333        3.83333        3.83333              0              0              0
        3.33333        4.33333        2.33333              0              0              0
        3.58333        4.58333        2.58333              0              0              0
        3.33333        4.33333        3.33333              0              0              0
        3.58333        4.58333        3.58333              0              0              0
        3.33333        4.33333        4.33333              0              0              0
        3.33333        4.83333        2.83333              0              0              0
        4.08333        1.58333        3.08333              0              0              0
        3.83333        1.33333        2.83333              0              0              0
        4.08333        2.08333        2.58333              0              0              0
        3.83333        1.83333        2.33333              0              0              0
        4.08333        2.08333        3.58333              0              0              0
        3.83333        1.83333        3.33333              0              0              0
        3.83333        1.83333        4.33333              0              0              0
        4.08333        2.58333        2.08333              0              0              0
        3.83333        2.33333        1.83333              0              0              0
        3.83333        2.33333        2.83333              0              0              0
        4.08333        2.58333        3.08333              0              0              0
        4.08333        2.58333        4.08333              0              0              0
        3.83333        2.33333        3.83333              0              0              0
        4.08333        3.08333        1.58333              0              0              0
        3.83333        2.83333        1.33333              0              0              0
        3.83333        2.83333        2.33333              0              0              0
        4.08333        3.08333        2.58333              0              0              0
        3.83333        2.83333        3.33333              0              0              0
        4.08333        3.08333        3.58333              0              0              0
        4.08333        3.08333        4.58333              0              0              0
        3.83333        2.83333        4.33333              0              0              0
        4.08333        3.58333        2.08333              0              0              0
        3.83333        3.33333        1.83333              0              0              0
        3.83333        3.33333        2.83333              0              0              0
        4.08333        3.58333        3.08333              0              0              0
        4.08333        3.58333        4.08333              0              0              0
        3.83333        3.33333        3.83333              0              0              0
        4.08333        4.08333        2.58333              0              0              0
        3.83333        3.83333        2.33333              0              0              0
        4.08333        4.08333        3.58333              0              0              0
        3.83333        3.83333        3.33333              0              0              0
        3.83333        3.83333        4.33333              0              0              0
        3.83333        4.33333        1.83333              0              0              0
        4.08333        4.58333        3.08333              0              0              0
        3.83333        4.33333        2.83333              0              0              0
        3.83333        4.33333        3.83333              0              0              0
        4.58333        2.08333        3.08333              0              0              0
        4.33333        1.83333        2.83333              0              0              0
        4.33333        1.83333        3.83333              0              0              0
        4.33333        2.33333        2.33333              0              0              0
        4.58333        2.58333        2.58333              0              0              0
        4.33333        2.33333        3.33333              0              0              0
        4.58333        2.58333        3.58333              0              0              0
        4.33333        2.33333        4.33333              0              0              0
        4.58333        3.08333        2.08333              0              0              0
        4.33333        2.83333        1.83333              0              0              0
        4.33333        2.83333        2.83333              0              0              0
        4.58333        3.08333        3.08333              0              0              0
        4.58333        3.08333        4.08333              0              0              0
        4.33333        2.83333        3.83333              0              0              0
        4.33333        3.33333        2.33333              0              0              0
        4.58333        3.58333        2.58333              0              0              0
        4.33333        3.33333        3.33333              0              0              0
        4.58333        3.58333        3.58333              0              0              0
        4.33333        3.33333        4.33333              0              0              0
        4.33333        3.83333        1.83333              0              0              0
        4.58333        4.08333        3.08333              0              0              0
        4.33333        3.83333        2.83333              0              0              0
        4.33333        3.83333        3.83333              0              0              0
        4.33333        4.33333        2.33333              0              0              0
        4.33333        4.33333        3.33333              0              0              0
        4.83333        2.33333        2.83333              0              0              0
        4.83333        2.83333        2.33333              0              0              0
        4.83333        2.83333        3.33333              0              0              0
        4.83333        3.33333        2.83333              0              0              0
H
0.0  //starting magnetism
156
        1.42589        1.92589        1.92589              0              0              0
        1.42589        1.92589        2.92589              0              0              0
        1.17589        2.17589        2.49078              0              0              0
        1.17589        2.49078        2.17589              0              0              0
        1.17589        2.17589        3.49078              0              0              0
        1.42589        2.92589        1.92589              0              0              0
        1.42589        3.24078        4.24078              0              0              0
        1.17589        2.67589        3.99078              0              0              0
        1.17589        2.99078        3.67589              0              0              0
        1.17589        3.49078        2.17589              0              0              0
        1.17589        3.17589        3.49078              0              0              0
        1.17589        3.49078        3.17589              0              0              0
        1.42589        3.74078        3.74078              0              0              0
        1.42589        4.24078        3.24078              0              0              0
        1.17589        3.67589        2.99078              0              0              0
        1.17589        3.99078        2.67589              0              0              0
        1.92589        1.42589        1.92589              0              0              0
        1.92589        1.42589        2.92589              0              0              0
        1.92589        1.92589        1.42589              0              0              0
        1.67589        1.67589        2.49078              0              0              0
        1.67589        1.67589        3.49078              0              0              0
        1.67589        2.49078        1.67589              0              0              0
        1.67589        2.17589        3.99078              0              0              0
        1.92589        2.92589        1.42589              0              0              0
        1.92589        3.24078        4.74078              0              0              0
        1.67589        2.67589        4.49078              0              0              0
        1.67589        3.49078        1.67589              0              0              0
        1.67589        3.99078        2.17589              0              0              0
        1.67589        3.67589        4.49078              0              0              0
        1.67589        3.99078        4.17589              0              0              0
        1.99078        3.99078        4.49078              0              0              0
        1.92589        4.74078        3.24078              0              0              0
        1.67589        4.49078        2.67589              0              0              0
        1.67589        4.17589        3.99078              0              0              0
        1.67589        4.49078        3.67589              0              0              0
        1.99078        4.49078        3.99078              0              0              0
        2.17589        1.17589        2.49078              0              0              0
        2.49078        1.17589        2.17589              0              0              0
        2.17589        1.17589        3.49078              0              0              0
        2.49078        1.67589        1.67589              0              0              0
        2.17589        1.67589        3.99078              0              0              0
        2.17589        2.49078        1.17589              0              0              0
        2.49078        2.17589        1.17589              0              0              0
        2.17589        2.17589        4.49078              0              0              0
        2.17589        2.67589        4.99078              0              0              0
        2.49078        2.99078        4.99078              0              0              0
        2.17589        3.49078        1.17589              0              0              0
        2.42589        3.74078        4.74078              0              0              0
        2.17589        3.99078        1.67589              0              0              0
        2.17589        4.49078        2.17589              0              0              0
        2.42589        4.74078        3.74078              0              0              0
        2.17589        4.17589        4.49078              0              0              0
        2.17589        4.49078        4.17589              0              0              0
        2.49078        4.49078        4.49078              0              0              0
        2.17589        4.99078        2.67589              0              0              0
        2.49078        4.99078        2.99078              0              0              0
        2.92589        1.42589        1.92589              0              0              0
        3.24078        1.42589        4.24078              0              0              0
        2.67589        1.17589        3.99078              0              0              0
        2.99078        1.17589        3.67589              0              0              0
        2.92589        1.92589        1.42589              0              0              0
        3.24078        1.92589        4.74078              0              0              0
        2.67589        1.67589        4.49078              0              0              0
        2.67589        2.17589        4.99078              0              0              0
        2.99078        2.49078        4.99078              0              0              0
        2.67589        3.17589        4.99078              0              0              0
        2.99078        3.49078        4.99078              0              0              0
        3.24078        4.24078        1.42589              0              0              0
        2.67589        3.99078        1.17589              0              0              0
        2.99078        3.67589        1.17589              0              0              0