ATOMIC_SPECIES
Si 28.0855 ../../data/elements/14_Si/1_LDA/Si.pz-vbc.UPF

NUMERICAL_ORBITAL

LATTICE_CONSTANT
10.2

LATTICE_VECTORS
2 0 0
0 4 0
0 0 4

ATOMIC_POSITIONS
Cartesian
Si
0
256
0 0 0 0 0 0
0 0 1 0 0 0
0 0 2 0 0 0
0 0 3 0 0 0
0 1 0 0 0 0
0 1 1 0 0 0
0 1 2 0 0 0
0 1 3 0 0 0
0 2 0 0 0 0
0 2 1 0 0 0
0 2 2 0 0 0
0 2 3 0 0 0
0 3 0 0 0 0
0 3 1 0 0 0
0 3 2 0 0 0
0 3 3 0 0 0
1 0 0 0 0 0
1 0 1 0 0 0
1 0 2 0 0 0
1 0 3 0 0 0
1 1 0 0 0 0
1 1 1 0 0 0
1 1 2 0 0 0
1 1 3 0 0 0
1 2 0 0 0 0
1 2 1 0 0 0
1 2 2 0 0 0
1 2 3 0 0 0
1 3 0 0 0 0
1 3 1 0 0 0
1 3 2 0 0 0
1 3 3 0 0 0
0.5 0.5 0 0 0 0
0.5 0.5 1 0 0 0
0.5 0.5 2 0 0 0
0.5 0.5 3 0 0 0
0.5 1.5 0 0 0 0
0.5 1.5 1 0 0 0
0.5 1.5 2 0 0 0
0.5 1.5 3 0 0 0
0.5 2.5 0 0 0 0
0.5 2.5 1 0 0 0
0.5 2.5 2 0 0 0
0.5 2.5 3 0 0 0
0.5 3.5 0 0 0 0
0.5 3.5 1 0 0 0
0.5 3.5 2 0 0 0
0.5 3.5 3 0 0 0
1.5 0.5 0 0 0 0
1.5 0.5 1 0 0 0
1.5 0.5 2 0 0 0
1.5 0.5 3 0 0 0
1.5 1.5 0 0 0 0
1.5 1.5 1 0 0 0
1.5 1.5 2 0 0 0
1.5 1.5 3 0 0 0
1.5 2.5 0 0 0 0
1.5 2.5 1 0 0 0
1.5 2.5 2 0 0 0
1.5 2.5 3 0 0 0
1.5 3.5 0 0 0 0
1.5 3.5 1 0 0 0
1.5 3.5 2 0 0 0
1.5 3.5 3 0 0 0
0.5 0 0.5 0 0 0
0.5 0 1.5 0 0 0
0.5 0 2.5 0 0 0
0.5 0 3.5 0 0 0
0.5 1 0.5 0 0 0
0.5 1 1.5 0 0 0
0.5 1 2.5 0 0 0
0.5 1 3.5 0 0 0
0.5 2 0.5 0 0 0
0.5 2 1.5 0 0 0
0.5 2 2.5 0 0 0
0.5 2 3.5 0 0 0
0.5 3 0.5 0 0 0
0.5 3 1.5 0 0 0
0.5 3 2.5 0 0 0
0.5 3 3.5 0 0 0
1.5 0 0.5 0 0 0
1.5 0 1.5 0 0 0
1.5 0 2.5 0 0 0
1.5 0 3.5 0 0 0
1.5 1 0.5 0 0 0
1.5 1 1.5 0 0 0
1.5 1 2.5 0 0 0
1.5 1 3.5 0 0 0
1.5 2 0.5 0 0 0
1.5 2 1.5 0 0 0
1.5 2 2.5 0 0 0
1.5 2 3.5 0 0 0
1.5 3 0.5 0 0 0
1.5 3 1.5 0 0 0
1.5 3 2.5 0 0 0
1.5 3 3.5 0 0 0
0 0.5 0.5 0 0 0
0 0.5 1.5 0 0 0
0 0.5 2.5 0 0 0
0 0.5 3.5 0 0 0
0 1.5 0.5 0 0 0
0 1.5 1.5 0 0 0
0 1.5 2.5 0 0 0
0 1.5 3.5 0 0 0
0 2.5 0.5 0 0 0
0 2.5 1.5 0 0 0
0 2.5 2.5 0 0 0
0 2.5 3.5 0 0 0
0 3.5 0.5 0 0 0
0 3.5 1.5 0 0 0
0 3.5 2.5 0 0 0
0 3.5 3.5 0 0 0
1 0.5 0.5 0 0 0
1 0.5 1.5 0 0 0
1 0.5 2.5 0 0 0
1 0.5 3.5 0 0 0
1 1.5 0.5 0 0 0
1 1.5 1.5 0 0 0
1 1.5 2.5 0 0 0
1 1.5 3.5 0 0 0
1 2.5 0.5 0 0 0
1 2.5 1.5 0 0 0
1 2.5 2.5 0 0 0
1 2.5 3.5 0 0 0
1 3.5 0.5 0 0 0
1 3.5 1.5 0 0 0
1 3.5 2.5 0 0 0
1 3.5 3.5 0 0 0
0.25 0.25 0.25 0 0 0
0.25 0.25 1.25 0 0 0
0.25 0.25 2.25 0 0 0
0.25 0.25 3.25 0 0 0
0.25 1.25 0.25 0 0 0
0.25 1.25 1.25 0 0 0
0.25 1.25 2.25 0 0 0
0.25 1.25 3.25 0 0 0
0.25 2.25 0.25 0 0 0
0.25 2.25 1.25 0 0 0
0.25 2.25 2.25 0 0 0
0.25 2.25 3.25 0 0 0
0.25 3.25 0.25 0 0 0
0.25 3.25 1.25 0 0 0
0.25 3.25 2.25 0 0 0
0.25 3.25 3.25 0 0 0
1.25 0.25 0.25 0 0 0
1.25 0.25 1.25 0 0 0
1.25 0.25 2.25 0 0 0
1.25 0.25 3.25 0 0 0
1.25 1.25 0.25 0 0 0
1.25 1.25 1.25 0 0 0
1.25 1.25 2.25 0 0 0
1.25 1.25 3.25 0 0 0
1.25 2.25 0.25 0 0 0
1.25 2.25 1.25 0 0 0
1.25 2.25 2.25 0 0 0
1.25 2.25 3.25 0 0 0
1.25 3.25 0.25 0 0 0
1.25 3.25 1.25 0 0 0
1.25 3.25 2.25 0 0 0
1.25 3.25 3.25 0 0 0
0.75 0.75 0.25 0 0 0
0.75 0.75 1.25 0 0 0
0.75 0.75 2.25 0 0 0
0.75 0.75 3.25 0 0 0
0.75 1.75 0.25 0 0 0
0.75 1.75 1.25 0 0 0
0.75 1.75 2.25 0 0 0
0.75 1.75 3.25 0 0 0
0.75 2.75 0.25 0 0 0
0.75 2.75 1.25 0 0 0
0.75 2.75 2.25 0 0 0
0.75 2.75 3.25 0 0 0
0.75 3.75 0.25 0 0 0
0.75 3.75 1.25 0 0 0
0.75 3.75 2.25 0 0 0
0.75 3.75 3.25 0 0 0
1.75 0.75 0.25 0 0 0
1.75 0.75 1.25 0 0 0
1.75 0.75 2.25 0 0 0
1.75 0.75 3.25 0 0 0
1.75 1.75 0.25 0 0 0
1.75 1.75 1.25 0 0 0
1.75 1.75 2.25 0 0 0
1.75 1.75 3.25 0 0 0
1.75 2.75 0.25 0 0 0
1.75 2.75 1.25 0 0 0
1.75 2.75 2.25 0 0 0
1.75 2.75 3.25 0 0 0
1.75 3.75 0.25 0 0 0
1.75 3.75 1.25 0 0 0
1.75 3.75 2.25 0 0 0
1.75 3.75 3.25 0 0 0
0.75 0.25 0.75 0 0 0
0.75 0.25 1.75 0 0 0
0.75 0.25 2.75 0 0 0
0.75 0.25 3.75 0 0 0
0.75 1.25 0.75 0 0 0
0.75 1.25 1.75 0 0 0
0.75 1.25 2.75 0 0 0
0.75 1.25 3.75 0 0 0
0.75 2.25 0.75 0 0 0
0.75 2.25 1.75 0 0 0
0.75 2.25 2.75 0 0 0
0.75 2.25 3.75 0 0 0
0.75 3.25 0.75 0 0 0
0.75 3.25 1.75 0 0 0
0.75 3.25 2.75 0 0 0
0.75 3.25 3.75 0 0 0
1.75 0.25 0.75 0 0 0
1.75 0.25 1.75 0 0 0
1.75 0.25 2.75 0 0 0
1.75 0.25 3.75 0 0 0
1.75 1.25 0.75 0 0 0
1.75 1.25 1.75 0 0 0
1.75 1.25 2.75 0 0 0
1.75 1.25 3.75 0 0 0
1.75 2.25 0.75 0 0 0
1.75 2.25 1.75 0 0 0
1.75 2.25 2.75 0 0 0
1.75 2.25 3.75 0 0 0
1.75 3.25 0.75 0 0 0
1.75 3.25 1.75 0 0 0
1.75 3.25 2.75 0 0 0
1.75 3.25 3.75 0 0 0
0.25 0.75 0.75 0 0 0
0.25 0.75 1.75 0 0 0
0.25 0.75 2.75 0 0 0
0.25 0.75 3.75 0 0 0
0.25 1.75 0.75 0 0 0
0.25 1.75 1.75 0 0 0
0.25 1.75 2.75 0 0 0
0.25 1.75 3.75 0 0 0
0.25 2.75 0.75 0 0 0
0.25 2.75 1.75 0 0 0
0.25 2.75 2.75 0 0 0
0.25 2.75 3.75 0 0 0
0.25 3.75 0.75 0 0 0
0.25 3.75 1.75 0 0 0
0.25 3.75 2.75 0 0 0
0.25 3.75 3.75 0 0 0
1.25 0.75 0.75 0 0 0
1.25 0.75 1.75 0 0 0
1.25 0.75 2.75 0 0 0
1.25 0.75 3.75 0 0 0
1.25 1.75 0.75 0 0 0
1.25 1.75 1.75 0 0 0
1.25 1.75 2.75 0 0 0
1.25 1.75 3.75 0 0 0
1.25 2.75 0.75 0 0 0
1.25 2.75 1.75 0 0 0
1.25 2.75 2.75 0 0 0
1.25 2.75 3.75 0 0 0
1.25 3.75 0.75 0 0 0
1.25 3.75 1.75 0 0 0
1.25 3.75 2.75 0 0 0
1.25 3.75 3.75 0 0 0
