ATOMIC_SPECIES
Si 28.0855 Si.pz-vbc.UPF 
H  1.0079  H.pz-vbc.UPF

NUMERICAL_ORBITAL

LATTICE_CONSTANT
10.2   // add lattice constant

LATTICE_VECTORS
4	0	0
0	4	0
0	0	4

ATOMIC_POSITIONS
Cartesian //Cartesian or Direct coordinate.

Si		//Element Label
0		//starting magnetism
29		//number of atoms
           1.25           1.25           1.25              0              0              0
           1.25           1.25           2.25              0              0              0
           1.25           1.75           1.75              0              0              0
              1            1.5            1.5              0              0              0
           1.25           2.25           1.25              0              0              0
           1.25           2.25           2.25              0              0              0
              1              2              2              0              0              0
           1.75           1.25           1.75              0              0              0
            1.5              1            1.5              0              0              0
           1.75           1.75           1.25              0              0              0
            1.5            1.5              1              0              0              0
           1.75           1.75           2.25              0              0              0
            1.5            1.5              2              0              0              0
           1.75           2.25           1.75              0              0              0
            1.5              2            1.5              0              0              0
            1.5              2            2.5              0              0              0
            1.5            2.5              2              0              0              0
           2.25           1.25           1.25              0              0              0
           2.25           1.25           2.25              0              0              0
              2              1              2              0              0              0
           2.25           1.75           1.75              0              0              0
              2            1.5            1.5              0              0              0
              2            1.5            2.5              0              0              0
           2.25           2.25           1.25              0              0              0
              2              2              1              0              0              0
              2              2              2              0              0              0
              2            2.5            1.5              0              0              0
            2.5            1.5              2              0              0              0
            2.5              2            1.5              0              0              0
H		//Element Label
0.0		//starting magnetism
38 		//number of atoms   
        1.09255        1.09255        1.09255              0              0              0
        1.09255        1.09255        2.09255              0              0              0
        1.09255        1.40745        2.40745              0              0              0
        1.40745        1.09255        2.40745              0              0              0
       0.842553        1.34255        1.65745              0              0              0
       0.842553        1.65745        1.34255              0              0              0
        1.09255        2.09255        1.09255              0              0              0
        1.09255        2.40745        1.40745              0              0              0
        1.40745        2.40745        1.09255              0              0              0
        1.09255        2.40745        2.40745              0              0              0
       0.842553        1.84255        2.15745              0              0              0
       0.842553        2.15745        1.84255              0              0              0
        1.34255       0.842553        1.65745              0              0              0
        1.65745       0.842553        1.34255              0              0              0
        1.34255        1.65745       0.842553              0              0              0
        1.65745        1.34255       0.842553              0              0              0
        1.34255        1.84255        2.65745              0              0              0
        1.65745        2.15745        2.65745              0              0              0
        1.34255        2.65745        1.84255              0              0              0
        1.65745        2.65745        2.15745              0              0              0
        2.09255        1.09255        1.09255              0              0              0
        2.40745        1.09255        1.40745              0              0              0
        2.40745        1.40745        1.09255              0              0              0
        2.40745        1.09255        2.40745              0              0              0
        1.84255       0.842553        2.15745              0              0              0
        2.15745       0.842553        1.84255              0              0              0
        1.84255        1.34255        2.65745              0              0              0
        2.15745        1.65745        2.65745              0              0              0
        2.40745        2.40745        1.09255              0              0              0
        1.84255        2.15745       0.842553              0              0              0
        2.15745        1.84255       0.842553              0              0              0
        2.15745        2.15745        2.15745              0              0              0
        1.84255        2.65745        1.34255              0              0              0
        2.15745        2.65745        1.65745              0              0              0
        2.65745        1.34255        1.84255              0              0              0
        2.65745        1.65745        2.15745              0              0              0
        2.65745        1.84255        1.34255              0              0              0
        2.65745        2.15745        1.65745              0              0              0
