ATOMIC_SPECIES
Si 28.0855 Si.pz-vbc.UPF
H 1.0079 H.pz-vbc.UPF

NUMERICAL_ORBITAL

LATTICE_CONSTANT
10.2   // add lattice constant

LATTICE_VECTORS
7	0	0
0	7	0
0	0	7
ATOMIC_POSITIONS
Cartesian
Si
0.0	//starting magnetism
438
        2.08333        2.08333        2.08333              0              0              0
        2.08333        2.08333        3.08333              0              0              0
        1.83333        1.83333        2.83333              0              0              0
        2.08333        2.08333        4.08333              0              0              0
        1.83333        1.83333        3.83333              0              0              0
        1.83333        2.33333        2.33333              0              0              0
        2.08333        2.58333        2.58333              0              0              0
        2.08333        2.58333        3.58333              0              0              0
        1.83333        2.33333        3.33333              0              0              0
        1.83333        2.33333        4.33333              0              0              0
        2.08333        2.58333        4.58333              0              0              0
        2.08333        3.08333        2.08333              0              0              0
        1.83333        2.83333        1.83333              0              0              0
        1.83333        2.83333        2.83333              0              0              0
        2.08333        3.08333        3.08333              0              0              0
        1.83333        2.83333        3.83333              0              0              0
        2.08333        3.08333        4.08333              0              0              0
        2.08333        3.08333        5.08333              0              0              0
        1.83333        2.83333        4.83333              0              0              0
        2.08333        3.58333        2.58333              0              0              0
        1.83333        3.33333        2.33333              0              0              0
        1.83333        3.33333        3.33333              0              0              0
        2.08333        3.58333        3.58333              0              0              0
        2.08333        3.58333        4.58333              0              0              0
        1.83333        3.33333        4.33333              0              0              0
        1.83333        3.33333        5.33333              0              0              0
        2.08333        4.08333        2.08333              0              0              0
        1.83333        3.83333        1.83333              0              0              0
        1.83333        3.83333        2.83333              0              0              0
        2.08333        4.08333        3.08333              0              0              0
        1.83333        3.83333        3.83333              0              0              0
        2.08333        4.08333        4.08333              0              0              0
        2.08333        4.08333        5.08333              0              0              0
        1.83333        3.83333        4.83333              0              0              0
        1.83333        4.33333        2.33333              0              0              0
        2.08333        4.58333        2.58333              0              0              0
        2.08333        4.58333        3.58333              0              0              0
        1.83333        4.33333        3.33333              0              0              0
        1.83333        4.33333        4.33333              0              0              0
        2.08333        4.58333        4.58333              0              0              0
        2.08333        5.08333        3.08333              0              0              0
        1.83333        4.83333        2.83333              0              0              0
        2.08333        5.08333        4.08333              0              0              0
        1.83333        4.83333        3.83333              0              0              0
        1.83333        5.33333        3.33333              0              0              0
        2.33333        1.83333        2.33333              0              0              0
        2.58333        2.08333        2.58333              0              0              0
        2.58333        2.08333        3.58333              0              0              0
        2.33333        1.83333        3.33333              0              0              0
        2.33333        1.83333        4.33333              0              0              0
        2.58333        2.08333        4.58333              0              0              0
        2.33333        2.33333        1.83333              0              0              0
        2.58333        2.58333        2.08333              0              0              0
        2.58333        2.58333        3.08333              0              0              0
        2.33333        2.33333        2.83333              0              0              0
        2.58333        2.58333        4.08333              0              0              0
        2.33333        2.33333        3.83333              0              0              0
        2.33333        2.33333        4.83333              0              0              0
        2.58333        2.58333        5.08333              0              0              0
        2.58333        3.08333        2.58333              0              0              0
        2.33333        2.83333        2.33333              0              0              0
        2.33333        2.83333        3.33333              0              0              0
        2.58333        3.08333        3.58333              0              0              0
        2.58333        3.08333        4.58333              0              0              0
        2.33333        2.83333        4.33333              0              0              0
        2.33333        2.83333        5.33333              0              0              0
        2.58333        3.08333        5.58333              0              0              0
        2.58333        3.58333        2.08333              0              0              0
        2.33333        3.33333        1.83333              0              0              0
        2.33333        3.33333        2.83333              0              0              0
        2.58333        3.58333        3.08333              0              0              0
        2.33333        3.33333        3.83333              0              0              0
        2.58333        3.58333        4.08333              0              0              0
        2.58333        3.58333        5.08333              0              0              0
        2.33333        3.33333        4.83333              0              0              0
        2.58333        4.08333        2.58333              0              0              0
        2.33333        3.83333        2.33333              0              0              0
        2.33333        3.83333        3.33333              0              0              0
        2.58333        4.08333        3.58333              0              0              0
        2.58333        4.08333        4.58333              0              0              0
        2.33333        3.83333        4.33333              0              0              0
        2.33333        3.83333        5.33333              0              0              0
        2.58333        4.08333        5.58333              0              0              0
        2.33333        4.33333        1.83333              0              0              0
        2.58333        4.58333        2.08333              0              0              0
        2.58333        4.58333        3.08333              0              0              0
        2.33333        4.33333        2.83333              0              0              0
        2.58333        4.58333        4.08333              0              0              0
        2.33333        4.33333        3.83333              0              0              0
        2.33333        4.33333        4.83333              0              0              0
        2.58333        4.58333        5.08333              0              0              0
        2.33333        4.83333        2.33333              0              0              0
        2.58333        5.08333        2.58333              0              0              0
        2.58333        5.08333        3.58333              0              0              0
        2.33333        4.83333        3.33333              0              0              0
        2.33333        4.83333        4.33333              0              0              0
        2.58333        5.08333        4.58333              0              0              0
        2.33333        5.33333        2.83333              0              0              0
        2.58333        5.58333        3.08333              0              0              0
        2.33333        5.33333        3.83333              0              0              0
        2.58333        5.58333        4.08333              0              0              0
        3.08333        2.08333        2.08333              0              0              0
        2.83333        1.83333        1.83333              0              0              0
        2.83333        1.83333        2.83333              0              0              0
        3.08333        2.08333        3.08333              0              0              0
        2.83333        1.83333        3.83333              0              0              0
        3.08333        2.08333        4.08333              0              0              0
        3.08333        2.08333        5.08333              0              0              0
        2.83333        1.83333        4.83333              0              0              0
        3.08333        2.58333        2.58333              0              0              0
        2.83333        2.33333        2.33333              0              0              0
        2.83333        2.33333        3.33333              0              0              0
        3.08333        2.58333        3.58333              0              0              0
        3.08333        2.58333        4.58333              0              0              0
        2.83333        2.33333        4.33333              0              0              0
        2.83333        2.33333        5.33333              0              0              0
        3.08333        2.58333        5.58333              0              0              0
        2.83333        2.83333        1.83333              0              0              0
        3.08333        3.08333        2.08333              0              0              0
        3.08333        3.08333        3.08333              0              0              0
        2.83333        2.83333        2.83333              0              0              0
        3.08333        3.08333        4.08333              0              0              0
        2.83333        2.83333        3.83333              0              0              0
        2.83333        2.83333        4.83333              0              0              0
        3.08333        3.08333        5.08333              0              0              0
        2.83333        3.33333        2.33333              0              0              0
        3.08333        3.58333        2.58333              0              0              0
        3.08333        3.58333        3.58333              0              0              0
        2.83333        3.33333        3.33333              0              0              0
        2.83333        3.33333        4.33333              0              0              0
        3.08333        3.58333        4.58333              0              0              0
        3.08333        3.58333        5.58333              0              0              0
        2.83333        3.33333        5.33333              0              0              0
        2.83333        3.83333        1.83333              0              0              0
        3.08333        4.08333        2.08333              0              0              0
        3.08333        4.08333        3.08333              0              0              0
        2.83333        3.83333        2.83333              0              0              0
        3.08333        4.08333        4.08333              0              0              0
        2.83333        3.83333        3.83333              0              0              0
        2.83333        3.83333        4.83333              0              0              0
        3.08333        4.08333        5.08333              0              0              0
        2.83333        3.83333        5.83333              0              0              0
        3.08333        4.58333        2.58333              0              0              0
        2.83333        4.33333        2.33333              0              0              0
        2.83333        4.33333        3.33333              0              0              0
        3.08333        4.58333        3.58333              0              0              0
        3.08333        4.58333        4.58333              0              0              0
        2.83333        4.33333        4.33333              0              0              0
        2.83333        4.33333        5.33333              0              0              0
        3.08333        4.58333        5.58333              0              0              0
        3.08333        5.08333        2.08333              0              0              0
        2.83333        4.83333        1.83333              0              0              0
        2.83333        4.83333        2.83333              0              0              0
        3.08333        5.08333        3.08333              0              0              0
        2.83333        4.83333        3.83333              0              0              0
        3.08333        5.08333        4.08333              0              0              0
        3.08333        5.08333        5.08333              0              0              0
        2.83333        4.83333        4.83333              0              0              0
        2.83333        5.33333        2.33333              0              0              0
        3.08333        5.58333        2.58333              0              0              0
        3.08333        5.58333        3.58333              0              0              0
        2.83333        5.33333        3.33333              0              0              0
        2.83333        5.33333        4.33333              0              0              0
        3.08333        5.58333        4.58333              0              0              0
        2.83333        5.83333        3.83333              0              0              0
        3.58333        2.08333        2.58333              0              0              0
        3.33333        1.83333        2.33333              0              0              0
        3.33333        1.83333        3.33333              0              0              0
        3.58333        2.08333        3.58333              0              0              0
        3.58333        2.08333        4.58333              0              0              0
        3.33333        1.83333        4.33333              0              0              0
        3.33333        1.83333        5.33333              0              0              0
        3.58333        2.58333        2.08333              0              0              0
        3.33333        2.33333        1.83333              0              0              0
        3.33333        2.33333        2.83333              0              0              0
        3.58333        2.58333        3.08333              0              0              0
        3.33333        2.33333        3.83333              0              0              0
        3.58333        2.58333        4.08333              0              0              0
        3.58333        2.58333        5.08333              0              0              0
        3.33333        2.33333        4.83333              0              0              0
        3.33333        2.83333        2.33333              0              0              0
        3.58333        3.08333        2.58333              0              0              0
        3.58333        3.08333        3.58333              0              0              0
        3.33333        2.83333        3.33333              0              0              0
        3.33333        2.83333        4.33333              0              0              0
        3.58333        3.08333        4.58333              0              0              0
        3.58333        3.08333        5.58333              0              0              0
        3.33333        2.83333        5.33333              0              0              0
        3.33333        3.33333        1.83333              0              0              0
        3.58333        3.58333        2.08333              0              0              0
        3.58333        3.58333        3.08333              0              0              0
        3.33333        3.33333        2.83333              0              0              0
        3.58333        3.58333        4.08333              0              0              0
        3.33333        3.33333        3.83333              0              0              0
        3.33333        3.33333        4.83333              0              0              0
        3.58333        3.58333        5.08333              0              0              0
        3.33333        3.33333        5.83333              0              0              0
        3.33333        3.83333        2.33333              0              0              0
        3.58333        4.08333        2.58333              0              0              0
        3.58333        4.08333        3.58333              0              0              0
        3.33333        3.83333        3.33333              0              0              0
        3.33333        3.83333        4.33333              0              0              0
        3.58333        4.08333        4.58333              0              0              0
        3.58333        4.08333        5.58333              0              0              0
        3.33333        3.83333        5.33333              0              0              0
        3.58333        4.58333        2.08333              0              0              0
        3.33333        4.33333        1.83333              0              0              0
        3.33333        4.33333        2.83333              0              0              0
        3.58333        4.58333        3.08333              0              0              0
        3.33333        4.33333        3.83333              0              0              0
        3.58333        4.58333        4.08333              0              0              0
        3.58333        4.58333        5.08333              0              0              0
        3.33333        4.33333        4.83333              0              0              0
        3.33333        4.33333        5.83333              0              0              0
        3.58333        5.08333        2.58333              0              0              0
        3.33333        4.83333        2.33333              0              0              0
        3.33333        4.83333        3.33333              0              0              0
        3.58333        5.08333        3.58333              0              0              0
        3.58333        5.08333        4.58333              0              0              0
        3.33333        4.83333        4.33333              0              0              0
        3.33333        4.83333        5.33333              0              0              0
        3.33333        5.33333        1.83333              0              0              0
        3.58333        5.58333        3.08333              0              0              0
        3.33333        5.33333        2.83333              0              0              0
        3.58333        5.58333        4.08333              0              0              0
        3.33333        5.33333        3.83333              0              0              0
        3.33333        5.33333        4.83333              0              0              0
        3.33333        5.83333        3.33333              0              0              0
        3.33333        5.83333        4.33333              0              0              0
        4.08333        2.08333        2.08333              0              0              0
        3.83333        1.83333        1.83333              0              0              0
        3.83333        1.83333        2.83333              0              0              0
        4.08333        2.08333        3.08333              0              0              0
        3.83333        1.83333        3.83333              0              0              0
        4.08333        2.08333        4.08333              0              0              0
        4.08333        2.08333        5.08333              0              0              0
        3.83333        1.83333        4.83333              0              0              0
        4.08333        2.58333        2.58333              0              0              0
        3.83333        2.33333        2.33333              0              0              0
        3.83333        2.33333        3.33333              0              0              0
        4.08333        2.58333        3.58333              0              0              0
        4.08333        2.58333        4.58333              0              0              0
        3.83333        2.33333        4.33333              0              0              0
        3.83333        2.33333        5.33333              0              0              0
        4.08333        2.58333        5.58333              0              0              0
        3.83333        2.83333        1.83333              0              0              0
        4.08333        3.08333        2.08333              0              0              0
        4.08333        3.08333        3.08333              0              0              0
        3.83333        2.83333        2.83333              0              0              0
        4.08333        3.08333        4.08333              0              0              0
        3.83333        2.83333        3.83333              0              0              0
        3.83333        2.83333        4.83333              0              0              0
        4.08333        3.08333        5.08333              0              0              0
        3.83333        2.83333        5.83333              0              0              0
        3.83333        3.33333        2.33333              0              0              0
        4.08333        3.58333        2.58333              0              0              0
        4.08333        3.58333        3.58333              0              0              0
        3.83333        3.33333        3.33333              0              0              0
        3.83333        3.33333        4.33333              0              0              0
        4.08333        3.58333        4.58333              0              0              0
        4.08333        3.58333        5.58333              0              0              0
        3.83333        3.33333        5.33333              0              0              0
        3.83333        3.83333        1.83333              0              0              0
        4.08333        4.08333        2.08333              0              0              0
        4.08333        4.08333        3.08333              0              0              0
        3.83333        3.83333        2.83333              0              0              0
        4.08333        4.08333        4.08333              0              0              0
        3.83333        3.83333        3.83333              0              0              0
        3.83333        3.83333        4.83333              0              0              0
        4.08333        4.08333        5.08333              0              0              0
        3.83333        3.83333        5.83333              0              0              0
        4.08333        4.58333        2.58333              0              0              0
        3.83333        4.33333        2.33333              0              0              0
        3.83333        4.33333        3.33333              0              0              0
        4.08333        4.58333        3.58333              0              0              0
        4.08333        4.58333        4.58333              0              0              0
        3.83333        4.33333        4.33333              0              0              0
        3.83333        4.33333        5.33333              0              0              0
        4.08333        4.58333        5.58333              0              0              0
        4.08333        5.08333        2.08333              0              0              0
        3.83333        4.83333        1.83333              0              0              0
        3.83333        4.83333        2.83333              0              0              0
        4.08333        5.08333        3.08333              0              0              0
        3.83333        4.83333        3.83333              0              0              0
        4.08333        5.08333        4.08333              0              0              0
        4.08333        5.08333        5.08333              0              0              0
        3.83333        4.83333        4.83333              0              0              0
        3.83333        5.33333        2.33333              0              0              0
        4.08333        5.58333        2.58333              0              0              0
        4.08333        5.58333        3.58333              0              0              0
        3.83333        5.33333        3.33333              0              0              0
        3.83333        5.33333        4.33333              0              0              0
        4.08333        5.58333        4.58333              0              0              0
        3.83333        5.83333        2.83333              0              0              0
        3.83333        5.83333        3.83333              0              0              0
        4.33333        1.83333        2.33333              0              0              0
        4.58333        2.08333        2.58333              0              0              0
        4.58333        2.08333        3.58333              0              0              0
        4.33333        1.83333        3.33333              0              0              0
        4.33333        1.83333        4.33333              0              0              0
        4.58333        2.08333        4.58333              0              0              0
        4.33333        2.33333        1.83333              0              0              0
        4.58333        2.58333        2.08333              0              0              0
        4.58333        2.58333        3.08333              0              0              0
        4.33333        2.33333        2.83333              0              0              0
        4.58333        2.58333        4.08333              0              0              0
        4.33333        2.33333        3.83333              0              0              0
        4.33333        2.33333        4.83333              0              0              0
        4.58333        2.58333        5.08333              0              0              0
        4.58333        3.08333        2.58333              0              0              0
        4.33333        2.83333        2.33333              0              0              0
        4.33333        2.83333        3.33333              0              0              0
        4.58333        3.08333        3.58333              0              0              0
        4.58333        3.08333        4.58333              0              0              0
        4.33333        2.83333        4.33333              0              0              0
        4.33333        2.83333        5.33333              0              0              0
        4.58333        3.08333        5.58333              0              0              0
        4.58333        3.58333        2.08333              0              0              0
        4.33333        3.33333        1.83333              0              0              0
        4.33333        3.33333        2.83333              0              0              0
        4.58333        3.58333        3.08333              0              0              0
        4.33333        3.33333        3.83333              0              0              0
        4.58333        3.58333        4.08333              0              0              0
        4.58333        3.58333        5.08333              0              0              0
        4.33333        3.33333        4.83333              0              0              0
        4.33333        3.33333        5.83333              0              0              0
        4.58333        4.08333        2.58333              0              0              0