ATOMIC_SPECIES
Si 28.0855 Si.pz-vbc.UPF
H 1.0079 H.pz-vbc.UPF

LATTICE_CONSTANT
10.2   // add lattice constant

LATTICE_VECTORS
2	0	0
0	2	0
0	0	2

ATOMIC_POSITIONS
Cartesian //Cartesian or Direct coordinate.

Si		//Element Label
0		//starting magnetism
64		//number of atoms
    0.000    0.000    0.000   	0	0	0
    0.250    0.250    0.250     0   0 	0
    0.000    0.500    0.500   	0	0	0
    0.250    0.750    0.750       0 0 0  
    0.500    0.000    0.500       0 0 0   
    0.750    0.250    0.750       0 0 0   
    0.500    0.500    0.000       0 0 0   
    0.750    0.750    0.250       0 0 0   
    1.000    0.000    0.000       0 0 0   
    1.250    0.250    0.250       0 0 0 
    1.000    0.500    0.500       0 0 0 
    1.250    0.750    0.750       0 0 0 
    1.500    0.000    0.500       0 0 0  
    1.750    0.250    0.750       0 0 0  
    1.500    0.500    0.000       0 0 0  
    1.750    0.750    0.250       0 0 0  
    0.000    1.000    0.000       0 0 0  
    0.250    1.250    0.250       0 0 0 
    0.000    1.500    0.500       0 0 0 
    0.250    1.750    0.750       0 0 0 
    0.500    1.000    0.500       0 0 0  
    0.750    1.250    0.750       0 0 0  
    0.500    1.500    0.000       0 0 0  
    0.750    1.750    0.250       0 0 0  
    0.000    0.000    1.000       0 0 0  
    0.250    0.250    1.250       0 0 0 
    0.000    0.500    1.500       0 0 0 
    0.250    0.750    1.750       0 0 0 
    0.500    0.000    1.500       0 0 0 
    0.750    0.250    1.750       0 0 0  
    0.500    0.500    1.000       0 0 0  
    0.750    0.750    1.250       0 0 0  
    1.000    1.000    0.000       0 0 0  
    1.250    1.250    0.250       0 0 0
    1.000    1.500    0.500       0 0 0 
    1.250    1.750    0.750       0 0 0 
    1.500    1.000    0.500       0 0 0  
    1.750    1.250    0.750       0 0 0  
    1.500    1.500    0.000       0 0 0  
    1.750    1.750    0.250       0 0 0  
    1.000    0.000    1.000       0 0 0  
    1.250    0.250    1.250       0 0 0 
    1.000    0.500    1.500       0 0 0
    1.250    0.750    1.750       0 0 0 
    1.500    0.000    1.500       0 0 0  
    1.750    0.250    1.750       0 0 0  
    1.500    0.500    1.000       0 0 0  
    1.750    0.750    1.250       0 0 0  
    0.000    1.000    1.000       0 0 0  
    0.250    1.250    1.250       0 0 0 
    0.000    1.500    1.500       0 0 0
    0.250    1.750    1.750       0 0 0 
    0.500    1.000    1.500       0 0 0  
    0.750    1.250    1.750       0 0 0  
    0.500    1.500    1.000       0 0 0  
    0.750    1.750    1.250       0 0 0  
    1.000    1.000    1.000       0 0 0  
    1.250    1.250    1.250       0 0 0 
    1.000    1.500    1.500       0 0 0 
    1.250    1.750    1.750       0 0 0 
    1.500    1.000    1.500       0 0 0  
    1.750    1.250    1.750       0 0 0  
    1.500    1.500    1.000       0 0 0  
    1.750    1.750    1.250       0 0 0  
H		//Element Label
0.0		//starting magnetism
1  		//number of atoms   
   1.125    1.125    1.125   0 0 0
