ATOMIC_SPECIES
Zn 30 Zn.LDA.UPF
O  08 O.pz-mt.UPF
LATTICE_CONSTANT
8.9  // add lattice constant(a.u.)

LATTICE_VECTORS
0.0 0.5 0.5
0.5 0.0 0.5
0.5 0.5 0.0

ATOMIC_POSITIONS
Direct  //Cartesian or Direct coordinate.

Zn
0.0     //starting magnetism
1       //number of atoms
0.0     0.0     0.0     0   0   0  // crystal coor.

O
0.0     //starting magnetism
1       //number of atoms
0.25     0.25     0.25 0   0   0  // crystal coor.
