ATOMIC_SPECIES
Zn 30  Zn.LDA.UPF
O  8   O.pz-mt.UPF

LATTICE_CONSTANT
1.00  	// add lattice constant(a.u.)

LATTICE_VECTORS
3.103984    -5.376255   0.00
3.103984    5.376255    0.00
0   0   6.207966

ATOMIC_POSITIONS
Direct	//Cartesian or Direct coordinate.

Zn 
0.000	//starting magnetism
2		//number of atoms
0.3333333333 0.6666666667 0.0000000000 0 0 0
0.6666666667 0.3333333333 0.5000000000 0 0 0

O
0.000	//starting magnetism
2		//number of atoms
0.3333333333 0.6666666667 0.37800000000 0 0 0
0.6666666667 0.3333333333 0.87800000000 0 0 0

