ATOMIC_SPECIES
Zn 30 Zn.LDA.UPF
O  08 O.pz-mt.UPF
LATTICE_CONSTANT
5.3  // add lattice constant(a.u.)

LATTICE_VECTORS
1 0 0
0 1 0
0 0 1

ATOMIC_POSITIONS
Direct  //Cartesian or Direct coordinate.

Zn
0.0     //starting magnetism
1       //number of atoms
0.0     0.0     0.0     0   0   0  // crystal coor.

O
0.0     //starting magnetism
1       //number of atoms
0.5     0.5     0.5 0   0   0  // crystal coor.
