ATOMIC_SPECIES
Si 1 Si_ONCV_PBE-1.0.upf

NUMERICAL_ORBITAL
Si_gga_8au_60Ry_2s2p1d.orb

LATTICE_CONSTANT
10.2

LATTICE_VECTORS
0.5 0.5 0 #latvec1
0.5 0 0.5 #latvec2
0 0.5 0.5 #latvec3

ATOMIC_POSITIONS
Cartesian

Si #label
0 #magnetism
2 #number of atoms
0  0  0  m  1  1  1  v  -4.68707039976e-05  -0.000102378003616  0.000115674761135
0.241  0.255  0.250999999999  m  1  1  1  v  4.68707039976e-05  0.000102378003616  -0.000115674761135
