INPUT_PARAMETERS
#Parameters (1.General)
suffix                  autotest
calculation             scf
init_wfc		random
symmetry                0
latname                 bcc
nspin                   1
pseudo_dir              ../../PP_ORB

#Parameters (2.Iteration)
ecutwfc                 10
scf_thr                 1e-9
scf_nmax                100

#Parameters (3.Basis)
basis_type             pw

#Parameters (4.Smearing)
smearing_method        gaussian
smearing_sigma         0.02

#parameters (5.Mixing)
mixing_type            broyden
mixing_beta            0.7
mixing_gg0             1.0

cal_force              1
cal_stress             1
