ATOMIC_SPECIES
Fe 55.845 Fe.Rappe.PBE.UPF upf

LATTICE_CONSTANT
6.6

ATOMIC_POSITIONS
Direct

Fe
0
1 
0 0 0

