INPUT_PARAMETERS
#Parameters	(General)
suffix          autotest
pseudo_dir		./
ntype			1	
nbands			8
calculation     md

#Parameters (Accuracy)
ecutwfc			20
niter			20

basis_type		pw
nstep           1

stress          1
stress_thr      1e-6
force           1
force_thr_ev    1.0e-3

ks_solver       cg
mixing_type     pulay
mixing_beta     0.7

md_mdtype        0
md_rstmd         0

read_file_dir   ./
