ATOMIC_SPECIES
Si 1 Si_ONCV_PBE-1.0.upf

NUMERICAL_ORBITAL
Si_gga_8au_60Ry_2s2p1d.orb

LATTICE_CONSTANT
10.2

LATTICE_VECTORS
0.5 0.5 0 #latvec1
0.5 0 0.5 #latvec2
0 0.5 0.5 #latvec3

ATOMIC_POSITIONS
Cartesian

Si #label
0 #magnetism
2 #number of atoms
0  0  0  m  1  1  1  v  1.63894588091e-05  -5.04834133033e-05  0.00015245189242
0.241  0.255  0.250999999999  m  1  1  1  v  -1.63894588091e-05  5.04834133033e-05  -0.00015245189242
