INPUT_PARAMETERS
#Parameters (1.General)
suffix      autotest
calculation     	scf
ntype			1
#nbands			46
symmetry   		1
pseudo_dir      ../../PP_ORB
orbital_dir     ../../PP_ORB

#Parameters (2.Iteration)
ecutwfc			20
scf_thr			1e-1
scf_nmax		1
cal_force 		1
cal_stress 		1
#Parameters (3.Basis)
basis_type		lcao

#Parameters (4.Smearing)
smearing_method		gauss
smearing_sigma		0.002

#Parameters (5.Mixing)
mixing_type             broyden
mixing_beta             0.1
ks_solver 		genelpa