INPUT_PARAMETERS
#Parameters (General)
suffix              autotest
calculation         cell-relax
pseudo_dir          ../../PP_ORB

#Parameters (esolver)
esolver_type        lj
lj_rcut             8.5
lj_epsilon          0.01032
lj_sigma            3.405

#Parameters (relax)
relax_new           1
relax_nmax          5
force_thr_ev        0.01
stress_thr          0.1
cal_force           1
cal_stress          1
