INPUT_PARAMETERS
#Parameters	(General)
suffix          autotest
pseudo_dir	../../PP_ORB
orbital_dir	../../PP_ORB
	
nbands			8
calculation     scf
#Parameters (Accuracy)
ecutwfc			20
scf_nmax			20

gamma_only      0
basis_type		lcao
relax_nmax           1

ks_solver       scalapack_gvx
mixing_type     broyden
mixing_beta     0.7
mixing_gg0      1.5
