INPUT_PARAMETERS
#Parameters	(General)
suffix          autotest
pseudo_dir		./
ntype			1	
nbands			8
calculation     scf
#Parameters (Accuracy)
ecutwfc			20
niter			20

gamma_only      0
basis_type		lcao
nstep           1

ks_solver       genelpa
mixing_type     pulay
mixing_beta     0.7
mixing_gg0      1.5
