INPUT_PARAMETERS
#Parameters	(General)
suffix          autotest
pseudo_dir	../../PP_ORB
orbital_dir	../../PP_ORB
	
nbands			8
calculation     cell-relax
#Parameters (Accuracy)
ecutwfc			20
scf_nmax			20

basis_type		lcao
relax_nmax           2

cal_stress          1
stress_thr      1e-6
cal_force           1
force_thr_ev    1.0e-3

ks_solver       scalapack_gvx
mixing_type     broyden
mixing_beta     0.7

gamma_only 	1

relax_new 0
