INPUT_PARAMETERS
#Parameters	(General)
suffix	            autotest
pseudo_dir	../../PP_ORB

gamma_only          0
calculation         scf
symmetry            1
relax_nmax               1
out_level           ie
smearing_method            gaussian
smearing_sigma               0.02

#Parameters (3.PW)
ecutwfc             20
scf_thr                 1e-8
scf_nmax               100

#Parameters (LCAO)
basis_type          pw
ks_solver           cg 
chg_extrap       second-order
out_dm              0
pw_diag_thr                0.00001

cal_force                1
#test_force          1
cal_stress               1
#test_stress         1

mixing_type         broyden
mixing_beta         0.4
mixing_gg0          1.5
nbspline            20
