INPUT_PARAMETERS
#Parameters (1.General)
suffix                  autotest
calculation             scf
nbands                  8
symmetry                0
latname                 fcc
pseudo_dir              ../../PP_ORB

#Parameters (2.Iteration)
ecutwfc                 30
scf_thr                 1e-9
scf_nmax                4

#Parameters (3.Basis)
basis_type             pw

#Parameters (4.Smearing)
smearing_method        gaussian
smearing_sigma         0.02

#parameters (5.Mixing)
mixing_type            pulay
mixing_beta            0.4

pseudo_mesh            1
pseudo_rcut            10

cal_force              1
cal_stress             1

init_chg               file
init_wfc               file
read_file_dir          .
