INPUT_PARAMETERS
#Parameters (1.General)
suffix			autotest
calculation     scf

nbands			20
pseudo_dir	../../PP_ORB
orbital_dir	../../PP_ORB

#Parameters (2.Iteration)
ecutwfc			20
scf_thr				1e-4
scf_nmax			100

nspin           4
#Parameters (3.Basis)
basis_type		lcao

#Parameters (4.Smearing)
smearing_method		gauss
smearing_sigma			0.002

#Parameters (5.Mixing)
mixing_type		plain
mixing_beta		0.7
mixing_gg0      0.0

out_mat_hs	1
out_mat_hs2	1
out_mat_r	1
