INPUT_PARAMETERS
#Parameters (1.General)
suffix                  Sn_msst
calculation             md
ntype                   1
nbands                  160
symmetry                0
pseudo_dir              ../../../tests/PP_ORB
orbital_dir             ../../../tests/PP_ORB

#Parameters (2.Iteration)
ecutwfc                 30
scf_thr                 1e-5
scf_nmax                100

#Parameters (3.Basis)
basis_type             lcao
ks_solver              genelpa
gamma_only             1

#Parameters (4.Smearing)
smearing_method        gaussian
smearing_sigma         0.01

#Parameters (5.Mixing)
mixing_type            pulay
mixing_beta            0.3
chg_extrap             second-order

#Parameters (6.MD)
md_type                4
md_nstep               10
md_dt                  1
md_tfirst              300
msst_direction         2
msst_qmass             200
msst_vel               0.028
msst_vis               0.3
msst_tscale            0.01
