INPUT_PARAMETERS

ntype			1	
ecutwfc			40
nbands          	4
calculation     	nscf
scf_nmax			40
diag_thr_e                    1.0e-12
scf_thr             	1.0e-15
init_chg            file
out_band                1
towannier90             1
nnkpfile                seedname.nnkp
