INPUT_PARAMETERS
suffix 			autotest
ntype 			2
pseudo_dir 		../../PP_ORB
orbital_dir 		../../PP_ORB
#ecutwfc 		100 
ecutwfc 		10
scf_thr 		1e-6 
basis_type 		lcao
calculation 		get_S 
